&FORCE_EVAL
  METHOD Quickstep
  &DFT
    LSD
    CHARGE 0
    MULTIPLICITY 2
    BASIS_SET_FILE_NAME ../PBE0_UCSEGBASIS
    POTENTIAL_FILE_NAME ../POTENTIAL
    &MGRID
      CUTOFF 300
      REL_CUTOFF  60
    &END MGRID
    &QS
      EPS_DEFAULT 1.0E-12
    &END QS
    &SCF
      EPS_SCF 1.0E-6
      MAX_SCF 30
      SCF_GUESS ATOMIC
      &OT
          PRECONDITIONER FULL_ALL
          MINIMIZER DIIS
          LINESEARCH 2PNT
      &END
      &OUTER_SCF
         EPS_SCF 1.0E-6
         MAX_SCF 5
      &END
    &END SCF
    &XC
      &XC_FUNCTIONAL PBE
      &END XC_FUNCTIONAL
    &END XC
    &POISSON
        PERIODIC NONE
        POISSON_SOLVER MT
    &END
  &END DFT
  &SUBSYS
    &CELL
      ABC 12.0 12.0 12.0
      PERIODIC NONE
    &END CELL
    &COORD
Mn       8.00000000       8.00000000       6.98070037       25       
S       8.00000000       8.00000000       9.01929963       16      
    &END COORD
    &KIND Mn
      BASIS_SET uc-bas-q15
      POTENTIAL GTH-PBE0-q15
      MAGNETIZATION 2
    &END KIND
################################
    &KIND Al
      BASIS_SET uc-bas-q3
      POTENTIAL GTH-PBE0-q3
    &END KIND
    &KIND Si
      BASIS_SET uc-bas-q4
      POTENTIAL GTH-PBE0-q4
    &END KIND
    &KIND P 
      BASIS_SET uc-bas-q5
      POTENTIAL GTH-PBE0-q5
    &END KIND
    &KIND S 
      BASIS_SET uc-bas-q6
      POTENTIAL GTH-PBE0-q6
    &END KIND
    &KIND Cl
      BASIS_SET uc-bas-q7
      POTENTIAL GTH-PBE0-q7
    &END KIND
################################
    &KIND H
      BASIS_SET uc-bas-q1
      POTENTIAL GTH-PBE0-q1
    &END KIND
    &KIND B
      BASIS_SET uc-bas-q3
      POTENTIAL GTH-PBE0-q3
    &END KIND
    &KIND C
      BASIS_SET uc-bas-q4
      POTENTIAL GTH-PBE0-q4
    &END KIND
    &KIND N
      BASIS_SET uc-bas-q5
      POTENTIAL GTH-PBE0-q5
    &END KIND
    &KIND O
      BASIS_SET uc-bas-q6
      POTENTIAL GTH-PBE0-q6
    &END KIND
    &KIND F
      BASIS_SET uc-bas-q7
      POTENTIAL GTH-PBE0-q7
    &END KIND
  &END SUBSYS
&END FORCE_EVAL
&GLOBAL
  PROJECT refMnSq15
  RUN_TYPE ENERGY
  PRINT_LEVEL LOW
&END GLOBAL
