&FORCE_EVAL
  METHOD Quickstep
  &DFT
    BASIS_SET_FILE_NAME ../PBE_UCBASIS
    POTENTIAL_FILE_NAME ../POTENTIAL
    &MGRID
      CUTOFF 600
      REL_CUTOFF  60
    &END MGRID
    &QS
      EPS_DEFAULT 1.0E-12
    &END QS
    &SCF
      EPS_SCF 1.0E-7
      MAX_SCF 10
      SCF_GUESS ATOMIC
      &OT
         MINIMIZER DIIS
         PRECONDITIONER FULL_ALL
      &END OT
      &OUTER_SCF
        EPS_SCF 1.0E-7
        MAX_SCF 10
      &END 
    &END SCF
    &XC
      &XC_FUNCTIONAL PBE
      &END XC_FUNCTIONAL
    &END XC
  &END DFT
  &SUBSYS
    &CELL
      ABC 18.0 18.0 18.0
    &END CELL
    &COORD
C      10.40555427       8.99999315       9.00000000        6
C       9.70276322      10.21730360       9.00000000        6
C       8.29714360      10.21728177       9.00000000        6
C       7.59438471       8.99998684       9.00000000        6
C       8.29714162       7.78272726       9.00000000        6
C       9.70273809       7.78273295       9.00000000        6
H      11.50666632       8.99999713       9.00000000        1
H      10.25336805      11.17082085       9.00000000        1
H       7.74656483      11.17078216       9.00000000        1
H       6.49333368       8.99999721       9.00000000        1
H       7.74657754       6.82922721       9.00000000        1
H      10.25336277       6.82917915       9.00000000        1
    &END COORD
    &KIND H
      BASIS_SET uc-bas-q1
      POTENTIAL GTH-PBE-q1
    &END KIND
    &KIND B
      BASIS_SET uc-bas-q3
      POTENTIAL GTH-PBE-q3
    &END KIND
    &KIND C
      BASIS_SET uc-bas-q4
      POTENTIAL GTH-PBE-q4
    &END KIND
    &KIND N
      BASIS_SET uc-bas-q5
      POTENTIAL GTH-PBE-q5
    &END KIND
    &KIND O
      BASIS_SET uc-bas-q6
      POTENTIAL GTH-PBE-q6
    &END KIND
    &KIND F
      BASIS_SET uc-bas-q7
      POTENTIAL GTH-PBE-q7
    &END KIND
  &END SUBSYS
&END FORCE_EVAL
&GLOBAL
  PROJECT refC6H6
  RUN_TYPE ENERGY
  PRINT_LEVEL LOW
&END GLOBAL
