&FORCE_EVAL
  METHOD Quickstep
  &DFT
    LSD
    BASIS_SET_FILE_NAME ../def2QZVPP
    POTENTIAL_FILE_NAME ../POTENTIAL
    &MGRID
      CUTOFF 600
      REL_CUTOFF  60
    &END MGRID
    &QS
      METHOD GAPW
      EPS_DEFAULT 1.0E-14
    &END QS
    &SCF
      EPS_SCF 5.0E-7
      MAX_SCF 20
      SCF_GUESS ATOMIC
      &OT
         MINIMIZER DIIS
         PRECONDITIONER FULL_ALL
         STEPSIZE 0.1
      &END OT
      &OUTER_SCF
        EPS_SCF 5.0E-7
        MAX_SCF 5
      &END
    &END SCF
    &XC
      &XC_FUNCTIONAL PBE
      &END XC_FUNCTIONAL
    &END XC
  &END DFT
  &SUBSYS
    &CELL
      ABC 15.0 15.0 15.0
    &END CELL
    &COORD
Fe      10.24064194       9.50000000       9.50000000       26
C      11.14213490       7.93856839       9.50000000        6
C      11.14213490      11.06143161       9.50000000        6
C       8.43765602       9.50000000       9.50000000        6
C      10.24064194       9.50000000      11.30352229        6
C      10.24064194       9.50000000       7.69647771        6
O      11.72192582       6.93434105       9.50000000        8
O      11.72192582      12.06565895       9.50000000        8
O       7.27807418       9.50000000       9.50000000        8
O      10.24064194       9.50000000      12.46046637        8
O      10.24064194       9.50000000       6.53953363        8
    &END COORD
    &KIND Fe
      BASIS_SET def2-QZVPP
      POTENTIAL ALL
      MAGNETIZATION 2
      LEBEDEV_GRID 100
      RADIAL_GRID  250
    &END KIND
    &KIND H
      BASIS_SET def2-QZVPP
      POTENTIAL ALL
    &END KIND
    &KIND C
      BASIS_SET def2-QZVPP
      POTENTIAL ALL
    &END KIND
    &KIND O
      BASIS_SET def2-QZVPP
      POTENTIAL ALL
    &END KIND
    &KIND F
      BASIS_SET def2-QZVPP
      POTENTIAL ALL
    &END KIND
  &END SUBSYS
&END FORCE_EVAL
&GLOBAL
  PROJECT refFeCO5
  RUN_TYPE ENERGY
  PRINT_LEVEL LOW
 PREFERRED_DIAG_LIBRARY SL
&END GLOBAL
