&FORCE_EVAL
  METHOD Quickstep
  &DFT
    LSD
    MULTIPLICITY 3
    BASIS_SET_FILE_NAME ../def2QZVPP
    POTENTIAL_FILE_NAME ../POTENTIAL
    &MGRID
      CUTOFF 600
      REL_CUTOFF  60
    &END MGRID
    &QS
      METHOD GAPW
      EPS_DEFAULT 1.0E-14
    &END QS
    &SCF
      EPS_SCF 5.0E-7
      MAX_SCF 20
      SCF_GUESS ATOMIC
      &OT
         MINIMIZER DIIS
         PRECONDITIONER FULL_ALL
         STEPSIZE 0.1
      &END OT
      &OUTER_SCF
        EPS_SCF 5.0E-7
        MAX_SCF 2
      &END
    &END SCF
    &XC
      &XC_FUNCTIONAL PBE
      &END XC_FUNCTIONAL
    &END XC
  &END DFT
  &SUBSYS
    &CELL
      ABC 18.0 18.0 18.0
    &END CELL
    &COORD
Fe      8.27821487       8.50000000       8.50000000   
C       9.50358347       8.50000000      10.14006367  
C       8.65687459       9.66539479      10.14006367 
C       7.28687086       9.22025359      10.14006367
C       7.28687086       7.77974641      10.14006367    
C       8.65687459       7.33460521      10.14006367   
C       9.50358347       8.50000000       6.85993633  
C       8.65687459       7.33460521       6.85993633 
C       7.28687086       7.77974641       6.85993633     
C       7.28687086       9.22025359       6.85993633    
C       8.65687459       9.66539479       6.85993633   
H      10.60077887       8.50000000      10.13261069  
H       8.99592662      10.70888962      10.13261069 
H       6.39922113       9.86516886      10.13261069       
H       6.39922113       7.13483114      10.13261069      
H       8.99592662       6.29111038      10.13261069     
H      10.60077887       8.50000000       6.86738931    
H       8.99592662       6.29111038       6.86738931   
H       6.39922113       7.13483114       6.86738931  
H       6.39922113       9.86516886       6.86738931 
H       8.99592662      10.70888962       6.86738931
    &END COORD
    &KIND Fe
      BASIS_SET def2-QZVPP
      POTENTIAL ALL
      MAGNETIZATION 2
      LEBEDEV_GRID 100
      RADIAL_GRID  250
    &END KIND
    &KIND H
      BASIS_SET def2-QZVPP
      POTENTIAL ALL
    &END KIND
    &KIND C
      BASIS_SET def2-QZVPP
      POTENTIAL ALL
    &END KIND
    &KIND O
      BASIS_SET def2-QZVPP
      POTENTIAL ALL
    &END KIND
    &KIND F
      BASIS_SET def2-QZVPP
      POTENTIAL ALL
    &END KIND
  &END SUBSYS
&END FORCE_EVAL
&GLOBAL
  PROJECT refFerrocen
  RUN_TYPE ENERGY
  PRINT_LEVEL LOW
  PREFERRED_DIAG_LIBRARY SL
&END GLOBAL
