&GLOBAL
  PROJECT molopt
  PROGRAM_NAME OPTIMIZE_BASIS
&END GLOBAL
&OPTIMIZE_BASIS

   ! BASIS_TEMPLATE_FILE contains a basis set which is used as a 
   ! starting point for optimization
   BASIS_TEMPLATE_FILE ./BASIS_INPUT

   ! BASIS_WORK_FILE contains the basis set generated with the information below
   BASIS_WORK_FILE WORK_BASIS_STRUCTURE

   ! BASIS_OUTPUT_FILE contains the result basis and intermediate basis set. 
   BASIS_OUTPUT_FILE molopt_dzvp_kr26

   ! specify basis set combinations being fitted together
   BASIS_COMBINATIONS 0 0 0

   USE_CONDITION_NUMBER 

   ! specify the weights on the CN for all combinations
   CONDITION_WEIGHT 0.01 ! 0

   ! specify the weights on the residuums for all combinations
   RESIDUUM_WEIGHT 10  ! 0

   WRITE_FREQUENCY 100

   &OPTIMIZATION
      MAX_FUN 250000
   &END

   &TRAINING_FILES
     INPUT_FILE_NAME Rnq26-ref.inp    
   &END
   &TRAINING_FILES
     INPUT_FILE_NAME Xeq26-ref.inp
   &END
   &TRAINING_FILES
     INPUT_FILE_NAME Kr2q26-ref.inp      
   &END
   &TRAINING_FILES
     INPUT_FILE_NAME KrXeRnq26-ref.inp
   &END
   &TRAINING_FILES
     INPUT_FILE_NAME Rn2q26-ref.inp     
   &END
   &TRAINING_FILES
     INPUT_FILE_NAME Xe2q26-ref.inp
   &END
   &TRAINING_FILES
     INPUT_FILE_NAME Krq26-ref.inp
   &END
     
   &FIT_KIND Kr
     BASIS_SET DZVP-MOLOPT-PBE-GTH-q26
     INITIAL_DEGREES_OF_FREEDOM ALL
   &END   
   &FIT_KIND Xe
     BASIS_SET DZVP-MOLOPT-PBE-GTH-q26
     INITIAL_DEGREES_OF_FREEDOM ALL
   &END   
   &FIT_KIND Rn
     BASIS_SET DZVP-MOLOPT-PBE-GTH-q26
     INITIAL_DEGREES_OF_FREEDOM ALL
   &END   
 &END 
&END
