&FORCE_EVAL
  METHOD Quickstep
  &DFT
    BASIS_SET_FILE_NAME ../PBE_UCBASIS
    POTENTIAL_FILE_NAME ../POTENTIAL
    &MGRID
      CUTOFF 600
      REL_CUTOFF  60
    &END MGRID
    &QS
      EPS_DEFAULT 1.0E-12
    &END QS
    &SCF
      EPS_SCF 1.0E-7
      MAX_SCF 10
      SCF_GUESS ATOMIC
      &OT
         MINIMIZER DIIS
         PRECONDITIONER FULL_ALL
      &END OT
      &OUTER_SCF
        EPS_SCF 1.0E-7
        MAX_SCF 10
      &END 
    &END SCF
    &XC
      &XC_FUNCTIONAL PBE
      &END XC_FUNCTIONAL
    &END XC
  &END DFT
  &SUBSYS
    &CELL
      ABC 16.0 16.0 16.0
    &END CELL
    &COORD
Li       9.37159037       7.62841257       9.37159191        3
Li       7.62841307       9.37159122       9.37158843        3
Li       7.62841250       7.62841326       7.62841217        3
Li       9.37159168       9.37159058       7.62841210        3
C       7.21389088       7.21389215       9.78611138        6
C       7.21389227       9.78611294       7.21389327        6
C       9.78611950       7.21389986       7.21388572        6
C       9.78611192       9.78611215       9.78611175        6
H       6.51392055       6.51392094       9.25557096        1
H       6.51391957       9.25557426       6.51392052        1
H      10.48608201       6.51391644       7.74443592        1
H      10.48608268       9.25557181      10.48608241        1
H      10.48608515       7.74441790       6.51393182        1
H       7.74443327      10.48608331       6.51391759        1
H       7.74443189       6.51392090      10.48608221        1
H      10.48608274      10.48608356       9.25557060        1
H       9.25556958       6.51391937       6.51391952        1
H       6.51392034       7.74443240      10.48608235        1
H       9.25557164      10.48608308      10.48608202        1
H       6.51391485      10.48607882       7.74444556        1
    &END COORD
################################
    &KIND Li
      BASIS_SET uc-bas-q1
      POTENTIAL GTH-PBE-q1
    &END KIND
################################
    &KIND S
      BASIS_SET uc-bas-q6
      POTENTIAL GTH-PBE-q6
    &END KIND
    &KIND Cl
      BASIS_SET uc-bas-q7
      POTENTIAL GTH-PBE-q7
    &END KIND
    &KIND H
      BASIS_SET uc-bas-q1
      POTENTIAL GTH-PBE-q1
    &END KIND
    &KIND B
      BASIS_SET uc-bas-q3
      POTENTIAL GTH-PBE-q3
    &END KIND
    &KIND C
      BASIS_SET uc-bas-q4
      POTENTIAL GTH-PBE-q4
    &END KIND
    &KIND O
      BASIS_SET uc-bas-q6
      POTENTIAL GTH-PBE-q6
    &END KIND
    &KIND F
      BASIS_SET uc-bas-q7
      POTENTIAL GTH-PBE-q7
    &END KIND
  &END SUBSYS
&END FORCE_EVAL
&GLOBAL
  PROJECT refLi4C4H12q1
  RUN_TYPE ENERGY
  PRINT_LEVEL LOW
&END GLOBAL
