&FORCE_EVAL
  METHOD Quickstep
  &DFT
    BASIS_SET_FILE_NAME ../def2QZVPP
    POTENTIAL_FILE_NAME ../POTENTIAL
    &MGRID
      CUTOFF 600
      REL_CUTOFF  60
    &END MGRID
    &QS
      METHOD GAPW
      EPS_DEFAULT 1.0E-14
    &END QS
    &SCF
      EPS_SCF 1.0E-7
      MAX_SCF 20
      SCF_GUESS ATOMIC
      &OT
         MINIMIZER DIIS
         PRECONDITIONER FULL_ALL
         STEPSIZE 0.1
      &END OT
      &OUTER_SCF
        EPS_SCF 1.0E-7
        MAX_SCF 5
      &END 
    &END SCF
    &XC
      &XC_FUNCTIONAL PBE
      &END XC_FUNCTIONAL
    &END XC
  &END DFT
  &SUBSYS
    &CELL
      ABC 12.0 12.0 12.0
    &END CELL
    &COORD
W       8.94190270       8.50000000       8.50000000       
O       9.82570810       6.96920415       8.50000000      
O       9.82570810      10.03079585       8.50000000     
O       7.17429190       8.50000000       8.50000000    
    &END COORD
    &KIND W
      BASIS_SET def2-QZVPP
      POTENTIAL GTH-PBE-q14
    &END KIND
    &KIND O
      BASIS_SET def2-QZVPP
      POTENTIAL ALL
    &END KIND
  &END SUBSYS
&END FORCE_EVAL
&GLOBAL
  PROJECT refWO3
  RUN_TYPE ENERGY
  PRINT_LEVEL LOW
&END GLOBAL
