&FORCE_EVAL
  METHOD Quickstep
  &DFT
    BASIS_SET_FILE_NAME ../PBE0_UCSEGBASIS
    POTENTIAL_FILE_NAME ../POTENTIAL
    &MGRID
      CUTOFF 600
      REL_CUTOFF  60
    &END MGRID
    &QS
      EPS_DEFAULT 1.0E-14
    &END QS
    &SCF
      EPS_SCF 1.0E-7
      MAX_SCF 10
      SCF_GUESS ATOMIC
      &OT
         MINIMIZER DIIS
         PRECONDITIONER FULL_ALL
      &END OT
      &OUTER_SCF
        EPS_SCF 1.0E-7
        MAX_SCF 10
      &END 
    &END SCF
#   &XC
#     &XC_FUNCTIONAL PBE
#     &END XC_FUNCTIONAL
#   &END XC
    &XC
      &XC_FUNCTIONAL
        &PBE
          SCALE_X 0.75
          SCALE_C 1.0
        &END
      &END XC_FUNCTIONAL
      &HF
        &SCREENING
          EPS_SCHWARZ 1.0E-12
          SCREEN_ON_INITIAL_P F
        &END
        &MEMORY
          MAX_MEMORY 6000
          EPS_STORAGE_SCALING 0.1
        &END
        &INTERACTION_POTENTIAL
          POTENTIAL_TYPE COULOMB
        &END
        FRACTION 0.25
      &END
    &END XC
    &POISSON
      PERIODIC NONE
      POISSON_SOLVER MT
    &END
  &END DFT
  &SUBSYS
    &CELL
      ABC 12.0 12.0 12.0
      PERIODIC NONE
    &END CELL
    &COORD
Ba       8.50000000       8.50000000       9.16889179       
H      10.34446359       8.50000000       7.83110821       
H       6.65553641       8.50000000       7.83110821      
    &END COORD
    &KIND Ba
      BASIS_SET uc-bas-q10
      POTENTIAL GTH-PBE0-q10
    &END KIND
################################
    &KIND S 
      BASIS_SET uc-bas-q6
      POTENTIAL GTH-PBE0-q6
    &END KIND
    &KIND H
      BASIS_SET uc-bas-q1
      POTENTIAL GTH-PBE0-q1
    &END KIND
    &KIND O
      BASIS_SET uc-bas-q6
      POTENTIAL GTH-PBE0-q6
    &END KIND
    &KIND F
      BASIS_SET uc-bas-q7
      POTENTIAL GTH-PBE0-q7
    &END KIND
  &END SUBSYS
&END FORCE_EVAL
&GLOBAL
  PROJECT refBaH2q10
  RUN_TYPE ENERGY
  PRINT_LEVEL LOW
  PREFERRED_DIAG_LIBRARY  SL
&END GLOBAL
