&FORCE_EVAL
  METHOD Quickstep
  &DFT
    BASIS_SET_FILE_NAME ../def2QZVPP
    POTENTIAL_FILE_NAME ../POTENTIAL
    &MGRID
      CUTOFF 600
      REL_CUTOFF  60
    &END MGRID
    &QS
      METHOD GAPW
      EPS_DEFAULT 1.0E-14
    &END QS
    &SCF
      EPS_SCF 1.0E-7
      MAX_SCF 20
      SCF_GUESS ATOMIC
      &OT
         MINIMIZER DIIS
         PRECONDITIONER FULL_ALL
         STEPSIZE 0.1
      &END OT
      &OUTER_SCF
        EPS_SCF 1.0E-7
        MAX_SCF 5
      &END 
    &END SCF
    &XC
      &XC_FUNCTIONAL PBE
      &END XC_FUNCTIONAL
    &END XC
  &END DFT
  &SUBSYS
    &CELL
      ABC 12.0 12.0 12.0
    &END CELL
    &COORD
W      10.00000000      10.00000000      10.00000000      
C      10.00000000      12.08347727      10.00000000     
C      10.00000000      10.00000000      12.08347727    
C      12.08347727      10.00000000      10.00000000   
C      10.00000000      10.00000000       7.91652273  
C       7.91652273      10.00000000      10.00000000 
C      10.00000000       7.91652273      10.00000000      
O      10.00000000      13.24157340      10.00000000     
O      10.00000000      10.00000000      13.24157340    
O      13.24157340      10.00000000      10.00000000   
O      10.00000000      10.00000000       6.75842660  
O       6.75842660      10.00000000      10.00000000 
O      10.00000000       6.75842660      10.00000000 
    &END COORD
    &KIND W
      BASIS_SET def2-QZVPP
      POTENTIAL GTH-PBE-q14
    &END KIND
    &KIND C
      BASIS_SET def2-QZVPP
      POTENTIAL ALL
    &END KIND
    &KIND O
      BASIS_SET def2-QZVPP
      POTENTIAL ALL
    &END KIND
  &END SUBSYS
&END FORCE_EVAL
&GLOBAL
  PROJECT refWCO6
  RUN_TYPE ENERGY
  PRINT_LEVEL LOW
&END GLOBAL
