&FORCE_EVAL
  METHOD Quickstep
  &DFT
    BASIS_SET_FILE_NAME ../SCAN_UCBASIS
    POTENTIAL_FILE_NAME ../POTENTIAL
    &MGRID
      CUTOFF 1800
      REL_CUTOFF  80
    &END MGRID
    &QS
      EPS_DEFAULT 1.0E-14
    &END QS
    &SCF
      EPS_SCF 1.0E-7
      MAX_SCF 10
      SCF_GUESS ATOMIC
      &OT
         MINIMIZER DIIS
         PRECONDITIONER FULL_ALL
      &END OT
      &OUTER_SCF
        EPS_SCF 1.0E-7
        MAX_SCF 5
      &END 
    &END SCF
    &XC
       &XC_FUNCTIONAL
         &LIBXC
          FUNCTIONAL MGGA_X_SCAN
         &END LIBXC
         &LIBXC
           FUNCTIONAL MGGA_C_SCAN
         &END LIBXC
       &END XC_FUNCTIONAL
    &END XC
  &END DFT
  &SUBSYS
    &CELL
      ABC 12.0 12.0 12.0
    &END CELL
    &COORD
P       7.96285062       8.49999998       8.11422991       15
O       9.42203689       8.50000021       7.38885554        8
O       7.23214096       9.76251190       7.38881498        8
O       7.23214170       7.23748774       7.38881495        8
O       7.96346389       8.50000001       9.61118505        8
H      10.11089898       8.49999989       8.08154873        1
H       6.88910106      10.36031503       8.08117309        1
H       6.88910102       6.63968497       8.08117307        1
    &END COORD
    &KIND Al
      BASIS_SET uc-bas-q3
      POTENTIAL GTH-SCAN-q3
    &END KIND
    &KIND Si
      BASIS_SET uc-bas-q4
      POTENTIAL GTH-SCAN-q4
    &END KIND
    &KIND P 
      BASIS_SET uc-bas-q5
      POTENTIAL GTH-SCAN-q5
    &END KIND
    &KIND S 
      BASIS_SET uc-bas-q6
      POTENTIAL GTH-SCAN-q6
    &END KIND
    &KIND Cl
      BASIS_SET uc-bas-q7
      POTENTIAL GTH-SCAN-q7
    &END KIND
################################
    &KIND H
      BASIS_SET uc-bas-q1
      POTENTIAL GTH-SCAN-q1
    &END KIND
    &KIND B
      BASIS_SET uc-bas-q3
      POTENTIAL GTH-SCAN-q3
    &END KIND
    &KIND C
      BASIS_SET uc-bas-q4
      POTENTIAL GTH-SCAN-q4
    &END KIND
    &KIND N
      BASIS_SET uc-bas-q5
      POTENTIAL GTH-SCAN-q5
    &END KIND
    &KIND O
      BASIS_SET uc-bas-q6
      POTENTIAL GTH-SCAN-q6
    &END KIND
    &KIND F
      BASIS_SET uc-bas-q7
      POTENTIAL GTH-SCAN-q7
    &END KIND
  &END SUBSYS
&END FORCE_EVAL
&GLOBAL
  PROJECT refH3PO4
  RUN_TYPE ENERGY
  PRINT_LEVEL LOW
&END GLOBAL
