&FORCE_EVAL
  METHOD Quickstep
  &DFT
    BASIS_SET_FILE_NAME ../def2QZVPP
    POTENTIAL_FILE_NAME ../POTENTIAL
    &MGRID
      CUTOFF 500
      REL_CUTOFF  60
    &END MGRID
    &QS
      METHOD GAPW
      EPS_DEFAULT 1.0E-14
    &END QS
    &SCF
      EPS_SCF 1.0E-6
      MAX_SCF 20
      #SCF_GUESS ATOMIC
      SCF_GUESS RESTART
      &OT
         MINIMIZER DIIS
         LINESEARCH 2PNT
         PRECONDITIONER FULL_ALL
      &END OT
      &OUTER_SCF
        EPS_SCF 1.0E-6
        MAX_SCF 5
      &END 
    &END SCF
    &XC
      &XC_FUNCTIONAL PBE
      &END XC_FUNCTIONAL
    &END XC
  &END DFT
  &SUBSYS
    &CELL
      ABC 12.0 12.0 12.0
    &END CELL
    &COORD
  B         0.0000        0.0150       -0.7836
  B         0.0000        0.0150        0.7836
  O         0.0000        1.3272        0.0000
  O         0.0000        0.4488       -2.0041
  O         0.0000        0.4488        2.0041
    &END COORD
    &KIND H
      BASIS_SET def2-QZVPP
      POTENTIAL ALL
    &END KIND
    &KIND B
      BASIS_SET def2-QZVPP
      POTENTIAL ALL
    &END KIND
    &KIND C
      BASIS_SET def2-QZVPP
      POTENTIAL ALL
    &END KIND
    &KIND N
      BASIS_SET def2-QZVPP
      POTENTIAL ALL
    &END KIND
    &KIND O
      BASIS_SET def2-QZVPP
      POTENTIAL ALL
    &END KIND
    &KIND F
      BASIS_SET def2-QZVPP
      POTENTIAL ALL
    &END KIND
  &END SUBSYS
&END FORCE_EVAL
&GLOBAL
  PROJECT refB2O3
  RUN_TYPE ENERGY
  PRINT_LEVEL LOW
  PREFERRED_DIAG_LIBRARY SL
&END GLOBAL
