&FORCE_EVAL
  METHOD Quickstep
  &DFT
    BASIS_SET_FILE_NAME ../def2QZVPP
    POTENTIAL_FILE_NAME ../POTENTIAL
    &MGRID
      CUTOFF 500
      REL_CUTOFF  60
    &END MGRID
    &QS
      METHOD GAPW
      EPS_DEFAULT 1.0E-14
    &END QS
    &SCF
      EPS_SCF 1.0E-7
      MAX_SCF 10
      SCF_GUESS ATOMIC
      &OT
         MINIMIZER DIIS
         PRECONDITIONER FULL_ALL
      &END OT
      &OUTER_SCF
        EPS_SCF 1.0E-7
        MAX_SCF 10
      &END 
    &END SCF
    &XC
      &XC_FUNCTIONAL PBE
      &END XC_FUNCTIONAL
    &END XC
  &END DFT
  &SUBSYS
    &CELL
      ABC 12.0 12.0 12.0
    &END CELL
    &COORD
C       7.50000370       6.82935602       7.50000000        6
C       7.50000101       8.17064798       7.50000000        6
H       8.43738920       6.24927077       7.50000000        1
H       6.56264720       6.24926787       7.50000000        1
H       8.43741247       8.75073213       7.50000000        1
H       6.56258753       8.75072874       7.50000000        1
    &END COORD
    &KIND H
      BASIS_SET def2-QZVPP
      POTENTIAL ALL
    &END KIND
    &KIND B
      BASIS_SET def2-QZVPP
      POTENTIAL ALL
    &END KIND
    &KIND C
      BASIS_SET def2-QZVPP
      POTENTIAL ALL
    &END KIND
    &KIND N
      BASIS_SET def2-QZVPP
      POTENTIAL ALL
    &END KIND
    &KIND O
      BASIS_SET def2-QZVPP
      POTENTIAL ALL
    &END KIND
    &KIND F
      BASIS_SET def2-QZVPP
      POTENTIAL ALL
    &END KIND
  &END SUBSYS
&END FORCE_EVAL
&GLOBAL
  PROJECT refC2H4
  RUN_TYPE ENERGY
  PRINT_LEVEL LOW
  PREFERRED_DIAG_LIBRARY SL
&END GLOBAL
