&FORCE_EVAL
  METHOD Quickstep
  &DFT
    BASIS_SET_FILE_NAME ../def2QZVPP
    POTENTIAL_FILE_NAME ../POTENTIAL
    &MGRID
      CUTOFF 600
      REL_CUTOFF  60
    &END MGRID
    &QS
      METHOD GAPW
      EPS_DEFAULT 1.0E-12
    &END QS
    &SCF
      EPS_SCF 1.0E-7
      MAX_SCF 20
      SCF_GUESS ATOMIC
      &OT
         MINIMIZER DIIS
         PRECONDITIONER FULL_ALL
         STEPSIZE 0.1
      &END OT
      &OUTER_SCF
        EPS_SCF 1.0E-7
        MAX_SCF 5
      &END 
    &END SCF
    &XC
      &XC_FUNCTIONAL PBE
      &END XC_FUNCTIONAL
    &END XC
  &END DFT
  &SUBSYS
    &CELL
      ABC 12.0 12.0 12.0
    &END CELL
    &COORD
Ru      10.77799499      10.00000000      10.00000000      
C      11.75422117       8.30912666      10.00000000      
C      11.75422117      11.69087334      10.00000000     
C       8.82554263      10.00000000      10.00000000    
C      10.77799499      10.00000000      11.95332831   
C      10.77799499      10.00000000       8.04667169  
O      12.33398496       7.30494631      10.00000000 
O      12.33398496      12.69505369      10.00000000       
O       7.66601504      10.00000000      10.00000000      
O      10.77799499      10.00000000      13.10827737     
O      10.77799499      10.00000000       6.89172263    
    &END COORD
    &KIND Ru
      BASIS_SET def2-QZVPP
      POTENTIAL GTH-PBE-q16
    &END KIND
    &KIND C
      BASIS_SET def2-QZVPP
      POTENTIAL ALL
    &END KIND
    &KIND O
      BASIS_SET def2-QZVPP
      POTENTIAL ALL
    &END KIND
  &END SUBSYS
&END FORCE_EVAL
&GLOBAL
  PROJECT refRuCO5
  RUN_TYPE ENERGY
  PRINT_LEVEL LOW
&END GLOBAL
