&FORCE_EVAL
  METHOD Quickstep
  &DFT
    LSD
    MULTIPLICITY 3
    BASIS_SET_FILE_NAME ../def2QZVPP
    POTENTIAL_FILE_NAME ../POTENTIAL
    &MGRID
      CUTOFF 600
      REL_CUTOFF  60
    &END MGRID
    &QS
      METHOD GAPW
      EPS_DEFAULT 1.0E-12
    &END QS
    &SCF
      EPS_SCF 5.0E-7
      MAX_SCF 20
      #SCF_GUESS ATOMIC
      SCF_GUESS RESTART
      &OT
         #MINIMIZER DIIS
         MINIMIZER CG
         PRECONDITIONER FULL_ALL
         STEPSIZE 0.1
      &END OT
      &OUTER_SCF
        EPS_SCF 5.0E-7
        MAX_SCF 5
      &END 
    &END SCF
    &XC
      &XC_FUNCTIONAL PBE
      &END XC_FUNCTIONAL
    &END XC
  &END DFT
  &SUBSYS
    &CELL
      ABC 12.0 12.0 12.0
    &END CELL
    &COORD
Hf       8.00000000       8.00000000       8.54734166       
O       9.44063390       8.00000000       7.45265834       
O       6.55936610       8.00000000       7.45265834      
    &END COORD
    &KIND Hf
      BASIS_SET def2-QZVPP
      POTENTIAL GTH-PBE-q12
    &END KIND
    &KIND O
      BASIS_SET def2-QZVPP
      POTENTIAL ALL
    &END KIND
  &END SUBSYS
&END FORCE_EVAL
&GLOBAL
  PROJECT refHfO2
  RUN_TYPE ENERGY
  PRINT_LEVEL LOW
&END GLOBAL
