&FORCE_EVAL
  METHOD Quickstep
  &DFT
    BASIS_SET_FILE_NAME ../def2QZVPP
    POTENTIAL_FILE_NAME ../POTENTIAL
    &MGRID
      CUTOFF 600
      REL_CUTOFF  60
    &END MGRID
    &QS
      METHOD GAPW
      EPS_DEFAULT 1.0E-14
    &END QS
    &SCF
      EPS_SCF 1.0E-7
      MAX_SCF 20
      SCF_GUESS ATOMIC
      &OT
         MINIMIZER DIIS
         PRECONDITIONER FULL_ALL
         STEPSIZE 0.1
      &END OT
      &OUTER_SCF
        EPS_SCF 1.0E-7
        MAX_SCF 5
      &END 
    &END SCF
    &XC
      &XC_FUNCTIONAL PBE
      &END XC_FUNCTIONAL
    &END XC
  &END DFT
  &SUBSYS
    &CELL
      ABC 12.0 12.0 12.0
    &END CELL
    &COORD
O       9.00000000       9.00000000       9.00000000       
Tc       9.00000000       9.00000000      10.87910253     
Tc       9.00000000       9.00000000       7.12089747    
O      10.38947046       8.19778886      11.46522959    
O      10.38947046       9.80221114       6.53477041   
O       9.00000000      10.60442228      11.46522959  
O       7.61052954       9.80221114       6.53477041 
O       7.61052954       8.19778886      11.46522959
O       9.00000000       7.39557772       6.53477041
    &END COORD
    &KIND Tc
      BASIS_SET def2-QZVPP
      POTENTIAL GTH-PBE-q15
    &END KIND
    &KIND O
      BASIS_SET def2-QZVPP
      POTENTIAL ALL
    &END KIND
  &END SUBSYS
&END FORCE_EVAL
&GLOBAL
  PROJECT refTc2O7
  RUN_TYPE ENERGY
  PRINT_LEVEL LOW
&END GLOBAL
