&FORCE_EVAL
  METHOD Quickstep
  &DFT
    LSD
    MULTIPLICITY 5
    BASIS_SET_FILE_NAME ../PBE0_UCSEGBASIS
    POTENTIAL_FILE_NAME ../POTENTIAL
    &MGRID
      CUTOFF 1200
      REL_CUTOFF  60
    &END MGRID
    &QS
      EPS_DEFAULT 1.0E-14
    &END QS
    &SCF
      EPS_SCF 1.0E-6
      MAX_SCF 50
##      SCF_GUESS ATOMIC
      SCF_GUESS RESTART
      &OT
         MINIMIZER CG
         LINESEARCH 2PNT
         PRECONDITIONER FULL_ALL
      &END
      &OUTER_SCF
        EPS_SCF 1.0E-6
        MAX_SCF 5
      &END
    &END SCF
#    &XC
#      &XC_FUNCTIONAL PBE
#      &END XC_FUNCTIONAL
#    &END XC
     &XC
      &XC_FUNCTIONAL
        &PBE
          SCALE_X 0.75
          SCALE_C 1.0
        &END
      &END XC_FUNCTIONAL
      &HF
        &SCREENING
          EPS_SCHWARZ 1.0E-12
          SCREEN_ON_INITIAL_P F
        &END
        &MEMORY
          MAX_MEMORY 6000
          EPS_STORAGE_SCALING 0.1
        &END
        &INTERACTION_POTENTIAL
          POTENTIAL_TYPE COULOMB
        &END
        FRACTION 0.25
      &END
    &END XC
    &POISSON
        PERIODIC NONE
        POISSON_SOLVER MT
    &END
  &END DFT
  &SUBSYS
    &CELL
      ABC 12.0 12.0 12.0
      PERIODIC NONE
    &END CELL
    &COORD
Fe       8.50000000       8.50000000       8.50000000       26
F      10.24622350       8.50000000       8.50000000        9
F       6.75377650       8.50000000       8.50000000        9
    &END COORD
    &KIND Fe
      BASIS_SET uc-bas-q16
      POTENTIAL GTH-PBE0-q16
      MAGNETIZATION 2
    &END KIND
################################
    &KIND Al
      BASIS_SET uc-bas-q3
      POTENTIAL GTH-PBE0-q3
    &END KIND
    &KIND Si
      BASIS_SET uc-bas-q4
      POTENTIAL GTH-PBE0-q4
    &END KIND
    &KIND P 
      BASIS_SET uc-bas-q5
      POTENTIAL GTH-PBE0-q5
    &END KIND
    &KIND S 
      BASIS_SET uc-bas-q6
      POTENTIAL GTH-PBE0-q6
    &END KIND
    &KIND Cl
      BASIS_SET uc-bas-q7
      POTENTIAL GTH-PBE0-q7
    &END KIND
################################
    &KIND H
      BASIS_SET uc-bas-q1
      POTENTIAL GTH-PBE0-q1
    &END KIND
    &KIND B
      BASIS_SET uc-bas-q3
      POTENTIAL GTH-PBE0-q3
    &END KIND
    &KIND C
      BASIS_SET uc-bas-q4
      POTENTIAL GTH-PBE0-q4
    &END KIND
    &KIND N
      BASIS_SET uc-bas-q5
      POTENTIAL GTH-PBE0-q5
    &END KIND
    &KIND O
      BASIS_SET uc-bas-q6
      POTENTIAL GTH-PBE0-q6
    &END KIND
    &KIND F
      BASIS_SET uc-bas-q7
      POTENTIAL GTH-PBE0-q7
    &END KIND
  &END SUBSYS
&END FORCE_EVAL
&GLOBAL
  PROJECT refFeF2q16
  RUN_TYPE ENERGY
  PRINT_LEVEL LOW
&END GLOBAL
