&FORCE_EVAL
  METHOD Quickstep
  &DFT
    LSD
    MULTIPLICITY 3
    BASIS_SET_FILE_NAME ../PBE0_UCSEGBASIS
    POTENTIAL_FILE_NAME ../POTENTIAL
    &MGRID
      CUTOFF 1200
      REL_CUTOFF  60
    &END MGRID
    &QS
      EPS_DEFAULT 1.0E-14
    &END QS
    &SCF
      EPS_SCF 2.0E-7
      MAX_SCF 10
#      SCF_GUESS ATOMIC
      SCF_GUESS RESTART
      &OT
         MINIMIZER DIIS
         LINESEARCH 2PNt
         PRECONDITIONER FULL_ALL
      &END OT
      &OUTER_SCF
        EPS_SCF 2.0E-7
        MAX_SCF 5
      &END 
    &END SCF
#    &XC
#      &XC_FUNCTIONAL PBE
#      &END XC_FUNCTIONAL
#    &END XC
     &XC
      &XC_FUNCTIONAL
        &PBE
          SCALE_X 0.75
          SCALE_C 1.0
        &END
      &END XC_FUNCTIONAL
      &HF
        &SCREENING
          EPS_SCHWARZ 1.0E-12
          SCREEN_ON_INITIAL_P T
        &END
        &MEMORY
          MAX_MEMORY 3800
          EPS_STORAGE_SCALING 0.1
        &END
        &INTERACTION_POTENTIAL
          POTENTIAL_TYPE COULOMB
        &END
        FRACTION 0.25
      &END
    &END XC
    &POISSON
        PERIODIC NONE
        POISSON_SOLVER MT
    &END
  &END DFT
  &SUBSYS
    &CELL
      ABC 16.0 16.0 16.0
      PERIODIC NONE
    &END CELL
    &COORD
Fe      8.27821487       8.50000000       8.50000000   
C       9.50358347       8.50000000      10.14006367  
C       8.65687459       9.66539479      10.14006367 
C       7.28687086       9.22025359      10.14006367
C       7.28687086       7.77974641      10.14006367    
C       8.65687459       7.33460521      10.14006367   
C       9.50358347       8.50000000       6.85993633  
C       8.65687459       7.33460521       6.85993633 
C       7.28687086       7.77974641       6.85993633     
C       7.28687086       9.22025359       6.85993633    
C       8.65687459       9.66539479       6.85993633   
H      10.60077887       8.50000000      10.13261069  
H       8.99592662      10.70888962      10.13261069 
H       6.39922113       9.86516886      10.13261069       
H       6.39922113       7.13483114      10.13261069      
H       8.99592662       6.29111038      10.13261069     
H      10.60077887       8.50000000       6.86738931    
H       8.99592662       6.29111038       6.86738931   
H       6.39922113       7.13483114       6.86738931  
H       6.39922113       9.86516886       6.86738931 
H       8.99592662      10.70888962       6.86738931
    &END COORD
    &KIND Fe
      BASIS_SET uc-bas-q16
      POTENTIAL GTH-PBE0-q16
      MAGNETIZATION 2
    &END KIND
################################
    &KIND Al
      BASIS_SET uc-bas-q3
      POTENTIAL GTH-PBE0-q3
    &END KIND
    &KIND Si
      BASIS_SET uc-bas-q4
      POTENTIAL GTH-PBE0-q4
    &END KIND
    &KIND P 
      BASIS_SET uc-bas-q5
      POTENTIAL GTH-PBE0-q5
    &END KIND
    &KIND S 
      BASIS_SET uc-bas-q6
      POTENTIAL GTH-PBE0-q6
    &END KIND
    &KIND Cl
      BASIS_SET uc-bas-q7
      POTENTIAL GTH-PBE0-q7
    &END KIND
################################
    &KIND H
      BASIS_SET uc-bas-q1
      POTENTIAL GTH-PBE0-q1
    &END KIND
    &KIND B
      BASIS_SET uc-bas-q3
      POTENTIAL GTH-PBE0-q3
    &END KIND
    &KIND C
      BASIS_SET uc-bas-q4
      POTENTIAL GTH-PBE0-q4
    &END KIND
    &KIND N
      BASIS_SET uc-bas-q5
      POTENTIAL GTH-PBE0-q5
    &END KIND
    &KIND O
      BASIS_SET uc-bas-q6
      POTENTIAL GTH-PBE0-q6
    &END KIND
    &KIND F
      BASIS_SET uc-bas-q7
      POTENTIAL GTH-PBE0-q7
    &END KIND
  &END SUBSYS
&END FORCE_EVAL
&GLOBAL
  PROJECT refFerrocenq16
  RUN_TYPE ENERGY
  PRINT_LEVEL LOW
&END GLOBAL
