&FORCE_EVAL
  METHOD Quickstep
  &DFT
    BASIS_SET_FILE_NAME ../def2QZVPP
    POTENTIAL_FILE_NAME ../POTENTIAL
    &MGRID
      CUTOFF 600
      REL_CUTOFF  60
    &END MGRID
    &QS
      METHOD GAPW
      EPS_DEFAULT 1.0E-14
    &END QS
    &SCF
      EPS_SCF 1.0E-6
      MAX_SCF 100
      #SCF_GUESS ATOMIC
      SCF_GUESS RESTART
      &OT
         MINIMIZER DIIS
         #MINIMIZER CG
         LINESEARCH 2PNT
         PRECONDITIONER FULL_ALL
         STEPSIZE 0.1
      &END OT
      &OUTER_SCF
        EPS_SCF 1.0E-6
        MAX_SCF 1
      &END
    &END SCF
    &XC
      &XC_FUNCTIONAL PBE
      &END XC_FUNCTIONAL
    &END XC
  &END DFT
  &SUBSYS
    &CELL
      ABC 14.0 14.0 14.0
    &END CELL
    &COORD
Ti       8.50000000       8.50000000       8.50000000       22
C       9.69175793       7.30824207       9.69175793        6 
C       7.30824207       9.69175793       9.69175793        6 
C       7.30824207       7.30824207       7.30824207        6 
C       9.69175793       9.69175793       7.30824207        6 
O      10.36425999       6.63574001      10.36425999        8 
O       6.63574001      10.36425999      10.36425999        8 
O       6.63574001       6.63574001       6.63574001        8 
O      10.36425999      10.36425999       6.63574001        8 
    &END COORD
    &KIND Ti
      BASIS_SET def2-QZVPP
      POTENTIAL ALL
      LEBEDEV_GRID 100
      RADIAL_GRID  250
    &END KIND
    &KIND S
      BASIS_SET def2-QZVPP
      POTENTIAL ALL
    &END KIND
    &KIND Cl
      BASIS_SET def2-QZVPP
      POTENTIAL ALL
    &END KIND
    &KIND H
      BASIS_SET def2-QZVPP
      POTENTIAL ALL
    &END KIND
    &KIND C
      BASIS_SET def2-QZVPP
      POTENTIAL ALL
    &END KIND
    &KIND O
      BASIS_SET def2-QZVPP
      POTENTIAL ALL
    &END KIND
    &KIND F
      BASIS_SET def2-QZVPP
      POTENTIAL ALL
    &END KIND
  &END SUBSYS
&END FORCE_EVAL
&GLOBAL
  PROJECT refTiCO4
  RUN_TYPE ENERGY
  PRINT_LEVEL LOW
  PREFERRED_DIAG_LIBRARY SL
&END GLOBAL
