&FORCE_EVAL
  METHOD Quickstep
  &DFT
    BASIS_SET_FILE_NAME ../def2QZVPP
    POTENTIAL_FILE_NAME ../POTENTIAL
    &MGRID
      CUTOFF 600
      REL_CUTOFF  60
    &END MGRID
    &QS
      METHOD GAPW
      EPS_DEFAULT 1.0E-14
    &END QS
    &SCF
      EPS_SCF 1.0E-6
      MAX_SCF 30
      ##SCF_GUESS ATOMIC
      SCF_GUESS RESTART
      &OT
         ##MINIMIZER DIIS
         MINIMIZER CG
         LINESEARCH 3PNT
         PRECONDITIONER FULL_ALL
         STEPSIZE 0.1
      &END OT
      &OUTER_SCF
        EPS_SCF 1.0E-6
        MAX_SCF 1
      &END 
    &END SCF
    &XC
      &XC_FUNCTIONAL PBE
      &END XC_FUNCTIONAL
    &END XC
  &END DFT
  &SUBSYS
    &CELL
      ABC 18.0 18.0 18.0
    &END CELL
    &COORD
P      11.18417413      10.50000000      11.16940712      
K      12.55252240       8.12995128       9.83059288     
K      12.55252240      12.87004872       9.83059288    
K       8.44747760      10.50000000       9.83059288   
    &END COORD
    &KIND K
      BASIS_SET def2-QZVPP
      POTENTIAL ALL
    &END KIND
################################
    &KIND H
      BASIS_SET def2-QZVPP
      POTENTIAL ALL
    &END KIND
    &KIND F
      BASIS_SET def2-QZVPP
      POTENTIAL ALL
    &END KIND
    &KIND P
      BASIS_SET def2-QZVPP
      POTENTIAL ALL
    &END KIND
    &KIND S
      BASIS_SET def2-QZVPP
      POTENTIAL ALL
    &END KIND
    &KIND Cl
      BASIS_SET def2-QZVPP
      POTENTIAL ALL
    &END KIND
  &END SUBSYS
&END FORCE_EVAL
&GLOBAL
  PROJECT refK3P
  RUN_TYPE ENERGY
  PRINT_LEVEL LOW
  PREFERRED_DIAG_LIBRARY SL
&END GLOBAL
