&FORCE_EVAL
  METHOD Quickstep
  &DFT
    LSD
    BASIS_SET_FILE_NAME ../def2QZVPP
    POTENTIAL_FILE_NAME ../POTENTIAL
    &MGRID
      CUTOFF 600
      REL_CUTOFF  60
    &END MGRID
    &QS
      METHOD GAPW
      EPS_DEFAULT 1.0E-14
    &END QS
    &SCF
      EPS_SCF 1.0E-7
      MAX_SCF 20
      SCF_GUESS ATOMIC
      &OT
         MINIMIZER DIIS
         PRECONDITIONER FULL_ALL
         STEPSIZE 0.1
      &END OT
      &OUTER_SCF
        EPS_SCF 1.0E-7
        MAX_SCF 5
      &END
    &END SCF
    &XC
      &XC_FUNCTIONAL PBE
      &END XC_FUNCTIONAL
    &END XC
  &END DFT
  &SUBSYS
    &CELL
      ABC 12.0 12.0 12.0
    &END CELL
    &COORD
Cr      10.00000000      10.00000000      10.00000000       24
C      10.00000000      11.90065469      10.00000000        6 
C      10.00000000      10.00000000      11.90065469        6 
C      11.90065469      10.00000000      10.00000000        6 
C      10.00000000      10.00000000       8.09934531        6 
C       8.09934531      10.00000000      10.00000000        6 
C      10.00000000       8.09934531      10.00000000        6 
O      10.00000000      13.05850636      10.00000000        8 
O      10.00000000      10.00000000      13.05850636        8 
O      13.05850636      10.00000000      10.00000000        8 
O      10.00000000      10.00000000       6.94149364        8 
O       6.94149364      10.00000000      10.00000000        8 
O      10.00000000       6.94149364      10.00000000        8 
    &END COORD
    &KIND Cr
      BASIS_SET def2-QZVPP
      POTENTIAL ALL
      MAGNETIZATION 2
    &END KIND
    &KIND Cl
      BASIS_SET def2-QZVPP
      POTENTIAL ALL
    &END KIND
    &KIND C
      BASIS_SET def2-QZVPP
      POTENTIAL ALL
    &END KIND
    &KIND O
      BASIS_SET def2-QZVPP
      POTENTIAL ALL
    &END KIND
    &KIND F
      BASIS_SET def2-QZVPP
      POTENTIAL ALL
    &END KIND
  &END SUBSYS
&END FORCE_EVAL
&GLOBAL
  PROJECT refCrCO6
  RUN_TYPE ENERGY
  PRINT_LEVEL LOW
  PREFERRED_DIAG_LIBRARY SL
&END GLOBAL
