&FORCE_EVAL
  METHOD Quickstep
  &DFT
    LSD
    BASIS_SET_FILE_NAME ../def2QZVPP
    POTENTIAL_FILE_NAME ../POTENTIAL
    &MGRID
      CUTOFF 600
      REL_CUTOFF  60
    &END MGRID
    &QS
      METHOD GAPW
      EPS_DEFAULT 1.0E-14
    &END QS
    &SCF
      EPS_SCF 1.0E-6
      MAX_SCF 20
      SCF_GUESS ATOMIC
      &OT
         MINIMIZER DIIS
         PRECONDITIONER FULL_ALL
         STEPSIZE 0.1
      &END OT
      &OUTER_SCF
        EPS_SCF 1.0E-6
        MAX_SCF 5
      &END
    &END SCF
    &XC
      &XC_FUNCTIONAL PBE
      &END XC_FUNCTIONAL
    &END XC
  &END DFT
  &SUBSYS
    &CELL
      ABC 12.0 12.0 12.0
    &END CELL
    &COORD
Cr      7.60295009       8.00000000       8.00000000       24
O       6.80885028       9.37542122       8.00000000        8 
O       6.80885028       6.62457878       8.00000000        8 
O       9.19114972       8.00000000       8.00000000        8 
    &END COORD
    &KIND Cr
      BASIS_SET def2-QZVPP
      POTENTIAL ALL
      MAGNETIZATION 2
    &END KIND
    &KIND Cl
      BASIS_SET def2-QZVPP
      POTENTIAL ALL
    &END KIND
    &KIND C
      BASIS_SET def2-QZVPP
      POTENTIAL ALL
    &END KIND
    &KIND O
      BASIS_SET def2-QZVPP
      POTENTIAL ALL
    &END KIND
    &KIND F
      BASIS_SET def2-QZVPP
      POTENTIAL ALL
    &END KIND
  &END SUBSYS
&END FORCE_EVAL
&GLOBAL
  PROJECT refCrO3
  RUN_TYPE ENERGY
  PRINT_LEVEL LOW
  PREFERRED_DIAG_LIBRARY SL
&END GLOBAL
