&FORCE_EVAL
  METHOD Quickstep
  &DFT
    BASIS_SET_FILE_NAME ../def2QZVPP
    POTENTIAL_FILE_NAME ../POTENTIAL
    &MGRID
      CUTOFF 600
      REL_CUTOFF  60
    &END MGRID
    &QS
      METHOD GAPW
      EPS_DEFAULT 1.0E-14
    &END QS
    &SCF
      EPS_SCF 1.0E-7
      MAX_SCF 20
      SCF_GUESS ATOMIC
      &OT
         MINIMIZER DIIS
         PRECONDITIONER FULL_ALL
         STEPSIZE 0.1
      &END OT
      &OUTER_SCF
        EPS_SCF 1.0E-7
        MAX_SCF 5
      &END 
    &END SCF
    &XC
      &XC_FUNCTIONAL PBE
      &END XC_FUNCTIONAL
    &END XC
  &END DFT
  &SUBSYS
    &CELL
      ABC 12.0 12.0 12.0
    &END CELL
    &COORD
Os      10.78307440      10.00000000      10.00000000       
C      11.76864428       8.29294290      10.00000000       
C      11.76864428      11.70705710      10.00000000     
C       8.81193465      10.00000000      10.00000000    
C      10.78307440      10.00000000      11.98360861   
C      10.78307440      10.00000000       8.01639139  
O      12.34922321       7.28735070      10.00000000 
O      12.34922321      12.71264930      10.00000000
O       7.65077679      10.00000000      10.00000000     
O      10.78307440      10.00000000      13.13892255    
O      10.78307440      10.00000000       6.86107745   
    &END COORD
    &KIND Os
      BASIS_SET def2-QZVPP
      POTENTIAL GTH-PBE-q16
    &END KIND
    &KIND C
      BASIS_SET def2-QZVPP
      POTENTIAL ALL
    &END KIND
    &KIND O
      BASIS_SET def2-QZVPP
      POTENTIAL ALL
    &END KIND
  &END SUBSYS
&END FORCE_EVAL
&GLOBAL
  PROJECT refOsCO5
  RUN_TYPE ENERGY
  PRINT_LEVEL LOW
&END GLOBAL
