&FORCE_EVAL
  METHOD Quickstep
  &DFT
    BASIS_SET_FILE_NAME ../SAPPORO1
    BASIS_SET_FILE_NAME ../SAPPORO2
    BASIS_SET_FILE_NAME ../SAPPORO3
    POTENTIAL_FILE_NAME ../POTENTIAL
    &RELATIVISTIC
        METHOD ZORA
        TRANSFORMATION ATOM
        ZORA_TYPE scMP
        Z_CUTOFF 36
    &END RELATIVISTIC
    LSD
    MULTIPLICITY 3
    &MGRID
      CUTOFF 600
      REL_CUTOFF  60
    &END MGRID
    &QS
      METHOD GAPW
      EPS_DEFAULT 1.0E-14
    &END QS
    &SCF
      EPS_SCF 2.0E-6
      MAX_SCF 100
      SCF_GUESS RESTART
      &OT
         MINIMIZER DIIS
         PRECONDITIONER FULL_ALL
         STEPSIZE 0.2
         N_DIIS  6
      &END OT
      &OUTER_SCF
        EPS_SCF 2.0E-6
        MAX_SCF 1
      &END 
    &END SCF
    &XC
      &XC_FUNCTIONAL PBE
      &END XC_FUNCTIONAL
    &END XC
  &END DFT
  &SUBSYS
    &CELL
      ABC 12.0 12.0 12.0
    &END CELL
    &COORD
Au       9.58488631       9.00000000       9.00000000       
Cl      10.75465894       6.97389438       9.00000000      
Cl      10.75465894      11.02610562       9.00000000     
Cl       7.24534106       9.00000000       9.00000000    
    &END COORD
    &KIND Au
      BASIS_SET Sapporo-DKH3-QZP-2012-diffuse
      POTENTIAL ALL
      RADIAL_GRID 250
      LEBEDEV_GRID 100
    &END KIND
    &KIND Cl
      BASIS_SET Sapporo-QZP-2012-diffuse
      POTENTIAL ALL
      RADIAL_GRID 100
      LEBEDEV_GRID 100
    &END KIND
  &END SUBSYS
&END FORCE_EVAL
&GLOBAL
  PROJECT refAuCl3
  RUN_TYPE ENERGY
  PRINT_LEVEL LOW
&END GLOBAL
