&FORCE_EVAL
  METHOD Quickstep
  &DFT
    BASIS_SET_FILE_NAME BASIS_MOLOPT 
    POTENTIAL_FILE_NAME POTENTIAL
    &MGRID
      CUTOFF 500
      REL_CUTOFF  60
    &END MGRID
    &QS
      EPS_DEFAULT 1.0E-12
      MAP_CONSISTENT
      EXTRAPOLATION PS
      EXTRAPOLATION_ORDER 3
    &END QS
    &SCF
      EPS_SCF 1.0E-7
      SCF_GUESS ATOMIC
      MAX_SCF 100
      &OT
         MINIMIZER DIIS
         PRECONDITIONER FULL_ALL
      &END OT
    &END SCF
    &XC
      &XC_FUNCTIONAL PBE
      &END XC_FUNCTIONAL
    &END XC
  &END DFT
  &SUBSYS
    &CELL
      ABC 12.0 12.0 12.0
    &END CELL
    &COORD
  C         0.0168576113        0.9260142026        0.000000
  C        -1.1948713145        0.2266978737        0.000000
  C        -1.1888821299       -1.1691446416        0.000000
  C         0.0170019162       -1.8721671498        0.000000
  C         1.2222312035       -1.1636734828        0.000000
  C         1.2308388961        0.2301050788        0.000000
  O         0.0751190393        2.2991941207        0.000000
  H        -0.8303548011        2.6518135976        0.000000
  H        -2.1398332321        0.7747939287        0.000000
  H        -2.1370985874       -1.7067325163        0.000000
  H         0.0185591558       -2.9613046784        0.000000
  H         2.1700547594       -1.7023449486        0.000000
  H         2.1640919523        0.7920460457        0.000000
    &END COORD
    &KIND H
      BASIS_SET TZV2PX-MOLOPT-GTH
      POTENTIAL GTH-PBE-q1
    &END KIND
    &KIND C
      BASIS_SET TZV2PX-MOLOPT-GTH
      POTENTIAL GTH-PBE-q4
    &END KIND
    &KIND O
      BASIS_SET TZV2PX-MOLOPT-GTH
      POTENTIAL GTH-PBE-q6
    &END KIND
  &END SUBSYS
&END FORCE_EVAL
&GLOBAL
  PROJECT refC6H5OH
  RUN_TYPE ENERGY
  PRINT_LEVEL LOW
&END GLOBAL
