&FORCE_EVAL
  METHOD Quickstep
  &DFT
    LSD
    MULTIPLICITY 4
    BASIS_SET_FILE_NAME ../SCAN_UCBASIS
    POTENTIAL_FILE_NAME ../POTENTIAL
    &MGRID
      CUTOFF 8000
      REL_CUTOFF  80
    &END MGRID
    &QS
      EPS_DEFAULT 1.0E-14
    &END QS
    &SCF
      EPS_SCF 1.0E-6
      MAX_SCF 20
      SCF_GUESS RESTART
      &OT
         MINIMIZER DIIS
         PRECONDITIONER FULL_ALL
      &END OT
      &OUTER_SCF
        EPS_SCF 1.0E-6
        MAX_SCF 5
      &END 
    &END SCF
    &XC
       &XC_FUNCTIONAL
         &LIBXC
          FUNCTIONAL MGGA_X_R2SCAN
         &END LIBXC
         &LIBXC
           FUNCTIONAL MGGA_C_R2SCAN
         &END LIBXC
       &END XC_FUNCTIONAL
    &END XC
#    &POISSON
#        PERIODIC NONE
#        POISSON_SOLVER MT
#    &END
  &END DFT
  &SUBSYS
    &CELL
      ABC 12.0 12.0 12.0
#      PERIODIC NONE
    &END CELL
    &COORD
Ir       8.50000000       8.50000000       8.50000000       
F       8.50000000       8.50000000      10.40358956       
F       8.50000000       8.50000000       6.59641044      
F       9.84602050       7.15397950       8.50000000     
F       9.84602050       9.84602050       8.50000000    
F       7.15397950       9.84602050       8.50000000   
F       7.15397950       7.15397950       8.50000000  
    &END COORD
    &KIND Ir
      BASIS_SET uc-bas-q17
      POTENTIAL GTH-SCAN-q17
    &END KIND
################################
    &KIND Al
      BASIS_SET uc-bas-q3
      POTENTIAL GTH-SCAN-q3
    &END KIND
    &KIND Si
      BASIS_SET uc-bas-q4
      POTENTIAL GTH-SCAN-q4
    &END KIND
    &KIND P 
      BASIS_SET uc-bas-q5
      POTENTIAL GTH-SCAN-q5
    &END KIND
    &KIND S 
      BASIS_SET uc-bas-q6
      POTENTIAL GTH-SCAN-q6
    &END KIND
    &KIND Cl
      BASIS_SET uc-bas-q7
      POTENTIAL GTH-SCAN-q7
    &END KIND
################################
    &KIND H
      BASIS_SET uc-bas-q1
      POTENTIAL GTH-SCAN-q1
    &END KIND
    &KIND B
      BASIS_SET uc-bas-q3
      POTENTIAL GTH-SCAN-q3
    &END KIND
    &KIND C
      BASIS_SET uc-bas-q4
      POTENTIAL GTH-SCAN-q4
    &END KIND
    &KIND N
      BASIS_SET uc-bas-q5
      POTENTIAL GTH-SCAN-q5
    &END KIND
    &KIND O
      BASIS_SET uc-bas-q6
      POTENTIAL GTH-SCAN-q6
    &END KIND
    &KIND F
      BASIS_SET uc-bas-q7
      POTENTIAL GTH-SCAN-q7
    &END KIND
  &END SUBSYS
&END FORCE_EVAL
&GLOBAL
  PROJECT refIrF6q17
  RUN_TYPE ENERGY
  PRINT_LEVEL LOW
&END GLOBAL
