&GLOBAL
  PROJECT molopt
  PROGRAM_NAME OPTIMIZE_BASIS
&END GLOBAL
&OPTIMIZE_BASIS

   ! BASIS_TEMPLATE_FILE contains a basis set which is used as a 
   ! starting point for optimization
   BASIS_TEMPLATE_FILE ./BASIS_INPUT

   ! BASIS_WORK_FILE contains the basis set generated with the information below
   BASIS_WORK_FILE WORK_BASIS_STRUCTURE

   ! BASIS_OUTPUT_FILE contains the result basis and intermediate basis set. 
   BASIS_OUTPUT_FILE molopt_qzvpp

   ! specify basis set combinations being fitted together
   BASIS_COMBINATIONS 0 0 0 0 0 0 0 0 0 0 0

   USE_CONDITION_NUMBER 

   ! specify the weights on the CN for all combinations
   CONDITION_WEIGHT 0.01 ! 0

   ! specify the weights on the residuums for all combinations
   RESIDUUM_WEIGHT 10  ! 0

   WRITE_FREQUENCY 500

   &OPTIMIZATION
      MAX_FUN 250000
      ACCURACY 1.e-08
      STEP_SIZE 0.01
   &END

   &TRAINING_FILES
     INPUT_FILE_NAME Al2O3-ref.inp  
   &END
   &TRAINING_FILES
     INPUT_FILE_NAME AlN-ref.inp   
   &END
   &TRAINING_FILES
     INPUT_FILE_NAME H2SO4-ref.inp  
   &END
   &TRAINING_FILES
     INPUT_FILE_NAME HSSH-ref.inp  
   &END
   &TRAINING_FILES
     INPUT_FILE_NAME S2-ref.inp   
   &END
   &TRAINING_FILES
     INPUT_FILE_NAME SiCl4-ref.inp
   &END
   &TRAINING_FILES
     INPUT_FILE_NAME Al2S3-ref.inp  
   &END
   &TRAINING_FILES
     INPUT_FILE_NAME Cl2-ref.inp   
   &END
   &TRAINING_FILES
     INPUT_FILE_NAME H3PO4-ref.inp  
   &END
   &TRAINING_FILES
     INPUT_FILE_NAME S5-ref.inp   
   &END
   &TRAINING_FILES
     INPUT_FILE_NAME SiF4-ref.inp                          
   &END
   &TRAINING_FILES
     INPUT_FILE_NAME AlCl3-ref.inp  
   &END
   &TRAINING_FILES
     INPUT_FILE_NAME ClF3-ref.inp  
   &END
   &TRAINING_FILES
     INPUT_FILE_NAME HCl-ref.inp    
   &END
   &TRAINING_FILES
     INPUT_FILE_NAME PF3-ref.inp   
   &END
   &TRAINING_FILES
     INPUT_FILE_NAME SF2-ref.inp  
   &END
   &TRAINING_FILES
     INPUT_FILE_NAME SiO2-ref.inp                          
   &END
   &TRAINING_FILES
     INPUT_FILE_NAME AlF3-ref.inp   
   &END
   &TRAINING_FILES
     INPUT_FILE_NAME ClF-ref.inp   
   &END
   &TRAINING_FILES
     INPUT_FILE_NAME HCP-ref.inp    
   &END
   &TRAINING_FILES
     INPUT_FILE_NAME PF5-ref.inp   
   &END
   &TRAINING_FILES
     INPUT_FILE_NAME SF4-ref.inp  
   &END
   &TRAINING_FILES
     INPUT_FILE_NAME SiS2-ref.inp                          
   &END
   &TRAINING_FILES
     INPUT_FILE_NAME AlH3-ref.inp   
   &END
   &TRAINING_FILES
     INPUT_FILE_NAME CS2-ref.inp   
   &END
   &TRAINING_FILES
     INPUT_FILE_NAME HSH-ref.inp    
   &END
   &TRAINING_FILES
     INPUT_FILE_NAME PH3-ref.inp   
   &END
   &TRAINING_FILES
     INPUT_FILE_NAME SF6-ref.inp
   &END

#########################################################
   &FIT_KIND Al
     BASIS_SET QZVPP-MOLOPT-PBE-AE
     INITIAL_DEGREES_OF_FREEDOM ALL
   &END 
   &FIT_KIND Si
     BASIS_SET QZVPP-MOLOPT-PBE-AE
     INITIAL_DEGREES_OF_FREEDOM ALL
   &END 
   &FIT_KIND P 
     BASIS_SET QZVPP-MOLOPT-PBE-AE
     INITIAL_DEGREES_OF_FREEDOM ALL
   &END 
   &FIT_KIND S 
     BASIS_SET QZVPP-MOLOPT-PBE-AE
     INITIAL_DEGREES_OF_FREEDOM ALL
   &END 
   &FIT_KIND Cl
     BASIS_SET QZVPP-MOLOPT-PBE-AE
     INITIAL_DEGREES_OF_FREEDOM ALL
   &END 
#########################################################
   &FIT_KIND H
     BASIS_SET QZVPP-MOLOPT-PBE-AE
     INITIAL_DEGREES_OF_FREEDOM NONE
   &END   
   &FIT_KIND B
     BASIS_SET QZVPP-MOLOPT-PBE-AE
     INITIAL_DEGREES_OF_FREEDOM NONE
   &END 
   &FIT_KIND C
     BASIS_SET QZVPP-MOLOPT-PBE-AE
     INITIAL_DEGREES_OF_FREEDOM NONE
   &END 
   &FIT_KIND N
     BASIS_SET QZVPP-MOLOPT-PBE-AE
     INITIAL_DEGREES_OF_FREEDOM NONE
   &END 
   &FIT_KIND O
     BASIS_SET QZVPP-MOLOPT-PBE-AE
     INITIAL_DEGREES_OF_FREEDOM NONE
   &END 
   &FIT_KIND F
     BASIS_SET QZVPP-MOLOPT-PBE-AE
     INITIAL_DEGREES_OF_FREEDOM NONE
   &END
 &END 
&END
