&FORCE_EVAL
  METHOD Quickstep
  &DFT
    BASIS_SET_FILE_NAME ../def2QZVPP
    POTENTIAL_FILE_NAME ../POTENTIAL
    &MGRID
      CUTOFF 500
      REL_CUTOFF  60
    &END MGRID
    &QS
      METHOD GAPW
      EPS_DEFAULT 1.0E-14
    &END QS
    &SCF
      EPS_SCF 1.0E-6
      MAX_SCF 30
      SCF_GUESS ATOMIC
      &OT
         MINIMIZER DIIS
         PRECONDITIONER FULL_ALL
      &END OT
      &OUTER_SCF
        EPS_SCF 1.0E-6
        MAX_SCF 5
      &END
    &END SCF
    &XC
      &XC_FUNCTIONAL PBE
      &END XC_FUNCTIONAL
    &END XC
  &END DFT
  &SUBSYS
    &CELL
      ABC 12.0 12.0 12.0
    &END CELL
    &COORD
Si       8.00000000       8.00000000       8.00000000       14
Cl       9.18631048       6.81368952       9.18631048       17
Cl       6.81368952       9.18631048       9.18631048       17
Cl       6.81368952       6.81368952       6.81368952       17
Cl       9.18631048       9.18631048       6.81368952       17
    &END COORD
    &KIND Al
      BASIS_SET def2-QZVPP
      POTENTIAL ALL
    &END KIND
    &KIND Si
      BASIS_SET def2-QZVPP
      POTENTIAL ALL
    &END KIND
    &KIND P
      BASIS_SET def2-QZVPP
      POTENTIAL ALL
    &END KIND
    &KIND S
      BASIS_SET def2-QZVPP
      POTENTIAL ALL
    &END KIND
    &KIND Cl
      BASIS_SET def2-QZVPP
      POTENTIAL ALL
    &END KIND
    &KIND H
      BASIS_SET def2-QZVPP
      POTENTIAL ALL
    &END KIND
    &KIND C
      BASIS_SET def2-QZVPP
      POTENTIAL ALL
    &END KIND
    &KIND N
      BASIS_SET def2-QZVPP
      POTENTIAL ALL
    &END KIND
    &KIND O
      BASIS_SET def2-QZVPP
      POTENTIAL ALL
    &END KIND
    &KIND F
      BASIS_SET def2-QZVPP
      POTENTIAL ALL
    &END KIND
  &END SUBSYS
&END FORCE_EVAL
&GLOBAL
  PROJECT refSiCl4
  RUN_TYPE ENERGY
  PRINT_LEVEL LOW
  PREFERRED_DIAG_LIBRARY SL
&END GLOBAL
