&FORCE_EVAL
  METHOD Quickstep
  &DFT
    BASIS_SET_FILE_NAME BASIS_MOLOPT 
    POTENTIAL_FILE_NAME POTENTIAL
    &MGRID
      CUTOFF 500
      REL_CUTOFF  60
    &END MGRID
    &QS
      EPS_DEFAULT 1.0E-12
      MAP_CONSISTENT
      EXTRAPOLATION PS
      EXTRAPOLATION_ORDER 3
    &END QS
    &SCF
      EPS_SCF 1.0E-7
      SCF_GUESS ATOMIC
      MAX_SCF 100
      &OT
         MINIMIZER DIIS
         PRECONDITIONER FULL_ALL
      &END OT
    &END SCF
    &XC
      &XC_FUNCTIONAL PBE
      &END XC_FUNCTIONAL
    &END XC
  &END DFT
  &SUBSYS
    &CELL
      ABC 12.0 12.0 12.0
    &END CELL
    &COORD
  B         0.8773        0.0000        0.0000
  B        -0.8773       -0.0000       -0.0000
  H        -0.0000        0.0000        0.9854
  H         0.0000       -0.0000       -0.9854
  H         1.4566        1.0408       -0.0000
  H         1.4566       -1.0408        0.0000
  H        -1.4566        1.0408       -0.0000
  H        -1.4566       -1.0408        0.0000
    &END COORD
    &KIND B
      BASIS_SET DZVP-MOLOPT-SR-GTH
      POTENTIAL GTH-PBE-q3
    &END KIND
    &KIND H
      BASIS_SET DZVP-MOLOPT-SR-GTH
      POTENTIAL GTH-PBE-q1
    &END KIND
  &END SUBSYS
&END FORCE_EVAL
&GLOBAL
  PROJECT refB2H6
  RUN_TYPE ENERGY
  PRINT_LEVEL LOW
&END GLOBAL
