&FORCE_EVAL
  METHOD Quickstep
  &DFT
    BASIS_SET_FILE_NAME BASIS_MOLOPT 
    POTENTIAL_FILE_NAME POTENTIAL
    &MGRID
      CUTOFF 500
      REL_CUTOFF  60
    &END MGRID
    &QS
      EPS_DEFAULT 1.0E-12
      MAP_CONSISTENT
      EXTRAPOLATION PS
      EXTRAPOLATION_ORDER 3
    &END QS
    &SCF
      EPS_SCF 1.0E-6
      SCF_GUESS ATOMIC
      MAX_SCF 100
      &OT
         MINIMIZER DIIS
         PRECONDITIONER FULL_ALL
      &END OT
    &END SCF
    &XC
      &XC_FUNCTIONAL PBE
      &END XC_FUNCTIONAL
    &END XC
  &END DFT
  &SUBSYS
    &CELL
      ABC 12.0 12.0 12.0
    &END CELL
    &COORD
  B         1.1580       -2.8188        0.0000
  N         2.3807       -2.0660        0.0000
  B         2.4228       -0.6280        0.0000
  N         1.1580        0.0560        0.0000
  B        -0.1061       -0.6280        0.0000
  N        -0.0677       -2.0660        0.0000
  H         1.1580        1.0708        0.0000
  H         1.1580       -4.0142        0.0000
  H        -1.1408       -0.0300        0.0000
  H        -0.9468       -2.5730        0.0000
  H         3.4587       -0.0300        0.0000
  H         3.2593       -2.5730        0.0000
    &END COORD
    &KIND B
      BASIS_SET DZVP-MOLOPT-SR-GTH
      POTENTIAL GTH-PBE-q3
    &END KIND
    &KIND N
      BASIS_SET DZVP-MOLOPT-SR-GTH
      POTENTIAL GTH-PBE-q5
    &END KIND
    &KIND H
      BASIS_SET DZVP-MOLOPT-SR-GTH
      POTENTIAL GTH-PBE-q1
    &END KIND
  &END SUBSYS
&END FORCE_EVAL
&GLOBAL
  PROJECT refBorazin
  RUN_TYPE ENERGY
  PRINT_LEVEL LOW
&END GLOBAL
