&FORCE_EVAL
  METHOD Quickstep
  &DFT
    BASIS_SET_FILE_NAME ../SCAN_UCBASIS
    POTENTIAL_FILE_NAME ../POTENTIAL
    &MGRID
      CUTOFF 3200
      REL_CUTOFF  60
    &END MGRID
    &QS
      EPS_DEFAULT 1.0E-12
    &END QS
    &SCF
      EPS_SCF 1.0E-7
      MAX_SCF 10
      SCF_GUESS RESTART
      &OT
         MINIMIZER DIIS
         PRECONDITIONER FULL_ALL
      &END OT
      &OUTER_SCF
        EPS_SCF 1.0E-7
        MAX_SCF 10
      &END 
    &END SCF
    &XC
       &XC_FUNCTIONAL
         &LIBXC
          FUNCTIONAL MGGA_X_SCAN
         &END LIBXC
         &LIBXC
          FUNCTIONAL MGGA_C_SCAN
         &END LIBXC
       &END XC_FUNCTIONAL
    &END XC
  &END DFT
  &SUBSYS
    &CELL
      ABC 10.0 10.0 10.0
    &END CELL
    &COORD
Mo       7.59521921       8.00000000       7.69132379     
O       6.78565762       9.40220180       8.30867621     
O       6.78565762       6.59779820       8.30867621    
O       9.21434238       8.00000000       8.30867621   
    &END COORD
    &KIND Mo 
      BASIS_SET uc-bas-q14
      POTENTIAL GTH-SCAN-q14
    &END KIND
################################
    &KIND Al
      BASIS_SET uc-bas-q3
      POTENTIAL GTH-SCAN-q3
    &END KIND
    &KIND Si
      BASIS_SET uc-bas-q4
      POTENTIAL GTH-SCAN-q4
    &END KIND
    &KIND P 
      BASIS_SET uc-bas-q5
      POTENTIAL GTH-SCAN-q5
    &END KIND
    &KIND S 
      BASIS_SET uc-bas-q6
      POTENTIAL GTH-SCAN-q6
    &END KIND
    &KIND Cl
      BASIS_SET uc-bas-q7
      POTENTIAL GTH-SCAN-q7
    &END KIND
################################
    &KIND H
      BASIS_SET uc-bas-q1
      POTENTIAL GTH-SCAN-q1
    &END KIND
    &KIND B
      BASIS_SET uc-bas-q3
      POTENTIAL GTH-SCAN-q3
    &END KIND
    &KIND C
      BASIS_SET uc-bas-q4
      POTENTIAL GTH-SCAN-q4
    &END KIND
    &KIND N
      BASIS_SET uc-bas-q5
      POTENTIAL GTH-SCAN-q5
    &END KIND
    &KIND O
      BASIS_SET uc-bas-q6
      POTENTIAL GTH-SCAN-q6
    &END KIND
    &KIND F
      BASIS_SET uc-bas-q7
      POTENTIAL GTH-SCAN-q7
    &END KIND
  &END SUBSYS
&END FORCE_EVAL
&GLOBAL
  PROJECT refMoO314
  RUN_TYPE ENERGY
  PRINT_LEVEL LOW
&END GLOBAL
