&FORCE_EVAL
  METHOD Quickstep
  &DFT
    LSD
    MULTIPLICITY 4
    BASIS_SET_FILE_NAME ../def2QZVPP
    POTENTIAL_FILE_NAME ../POTENTIAL
    &MGRID
      CUTOFF 600
      REL_CUTOFF  60
    &END MGRID
    &QS
      METHOD GAPW
      EPS_DEFAULT 1.0E-14
    &END QS
    &SCF
      EPS_SCF 3.0E-7
      MAX_SCF 20
      #SCF_GUESS ATOMIC
      SCF_GUESS RESTART
      &OT
         #MINIMIZER DIIS
         MINIMIZER CG  
         PRECONDITIONER FULL_ALL
         STEPSIZE 0.1
      &END OT
      &OUTER_SCF
        EPS_SCF 3.0E-7
        MAX_SCF 5
      &END 
    &END SCF
    &XC
      &XC_FUNCTIONAL PBE
      &END XC_FUNCTIONAL
    &END XC
  &END DFT
  &SUBSYS
    &CELL
      ABC 12.0 12.0 12.0
    &END CELL
    &COORD
Ru       7.50000000       7.50000000       6.54981114     
F       7.50000000       7.50000000       8.45018886     
    &END COORD
    &KIND Ru
      BASIS_SET def2-QZVPP
      POTENTIAL GTH-PBE-q16
    &END KIND
    &KIND F
      BASIS_SET def2-QZVPP
      POTENTIAL ALL
    &END KIND
  &END SUBSYS
&END FORCE_EVAL
&GLOBAL
  PROJECT refRuF
  RUN_TYPE ENERGY
  PRINT_LEVEL LOW
&END GLOBAL
