&FORCE_EVAL
  METHOD Quickstep
  &DFT
    LSD
    MULTIPLICITY 5
    BASIS_SET_FILE_NAME ../def2QZVPP
    POTENTIAL_FILE_NAME ../POTENTIAL
    &MGRID
      CUTOFF 600
      REL_CUTOFF  60
    &END MGRID
    &QS
      METHOD GAPW
      EPS_DEFAULT 1.0E-14
    &END QS
    &SCF
      EPS_SCF 5.0E-7
      MAX_SCF 20
      SCF_GUESS ATOMIC
      &OT
         MINIMIZER DIIS
         PRECONDITIONER FULL_ALL
         STEPSIZE 0.1
      &END OT
      &OUTER_SCF
        EPS_SCF 5.0E-7
        MAX_SCF 10
      &END
    &END SCF
    &XC
      &XC_FUNCTIONAL PBE
      &END XC_FUNCTIONAL
    &END XC
  &END DFT
  &SUBSYS
    &CELL
      ABC 12.0 12.0 12.0
    &END CELL
    &COORD
Co       8.43689705       8.00000000       8.00000000       27
F       9.31069116       6.48654421       8.00000000        9 
F       9.31069116       9.51345579       8.00000000        9 
F       6.68930884       8.00000000       8.00000000        9 
    &END COORD
    &KIND Co
      BASIS_SET def2-QZVPP
      POTENTIAL ALL
      MAGNETIZATION 3
      LEBEDEV_GRID 100
      RADIAL_GRID  250
    &END KIND
    &KIND Cl
      BASIS_SET def2-QZVPP
      POTENTIAL ALL
    &END KIND
    &KIND F
      BASIS_SET def2-QZVPP
      POTENTIAL ALL
    &END KIND
  &END SUBSYS
&END FORCE_EVAL
&GLOBAL
  PROJECT refCoF3
  RUN_TYPE ENERGY
  PRINT_LEVEL LOW
  PREFERRED_DIAG_LIBRARY SL
&END GLOBAL
