&FORCE_EVAL
  METHOD Quickstep
  &DFT
    CHARGE -1
    BASIS_SET_FILE_NAME ../def2QZVPP
    POTENTIAL_FILE_NAME ../POTENTIAL
    &MGRID
      CUTOFF 600
      REL_CUTOFF  60
    &END MGRID
    &QS
      METHOD GAPW
      EPS_DEFAULT 1.0E-14
    &END QS
    &SCF
      EPS_SCF 1.0E-7
      MAX_SCF 20
      SCF_GUESS ATOMIC
      &OT
         MINIMIZER DIIS
         PRECONDITIONER FULL_ALL
         STEPSIZE 0.1
      &END OT
      &OUTER_SCF
        EPS_SCF 1.0E-7
        MAX_SCF 5
      &END 
    &END SCF
    &XC
      &XC_FUNCTIONAL PBE
      &END XC_FUNCTIONAL
    &END XC
  &END DFT
  &SUBSYS
    &CELL
      ABC 12.0 12.0 12.0
    &END CELL
    &COORD
Bi       9.50000000       9.50000000       9.50000000       
Cl       9.50000000      12.05357076       9.50000000      
Cl       9.50000000       9.50000000      12.05357076     
Cl       9.50000000       6.94642924       9.50000000    
Cl       9.50000000       9.50000000       6.94642924   
Cl      12.05357076       9.50000000       9.50000000  
Cl       6.94642924       9.50000000       9.50000000 
    &END COORD
    &KIND Bi 
      BASIS_SET def2-QZVPP
      POTENTIAL GTH-PBE-q23
    &END KIND
    &KIND Cl
      BASIS_SET def2-QZVPP
      POTENTIAL ALL
    &END KIND
  &END SUBSYS
&END FORCE_EVAL
&GLOBAL
  PROJECT refBiCl6
  RUN_TYPE ENERGY
  PRINT_LEVEL LOW
&END GLOBAL
