&FORCE_EVAL
  METHOD Quickstep
  &DFT
    LSD
    BASIS_SET_FILE_NAME ../def2QZVPP
    POTENTIAL_FILE_NAME ../POTENTIAL
    &MGRID
      CUTOFF 600
      REL_CUTOFF  60
    &END MGRID
    &QS
      METHOD GAPW
      EPS_DEFAULT 1.0E-14
    &END QS
    &SCF
      EPS_SCF 1.0E-7
      MAX_SCF 20
      SCF_GUESS ATOMIC
      &OT
         MINIMIZER DIIS
         PRECONDITIONER FULL_ALL
         STEPSIZE 0.1
      &END OT
      &OUTER_SCF
        EPS_SCF 1.0E-7
        MAX_SCF 5
      &END 
    &END SCF
    &XC
      &XC_FUNCTIONAL PBE
      &END XC_FUNCTIONAL
    &END XC
  &END DFT
  &SUBSYS
    &CELL
      ABC 12.0 12.0 12.0
    &END CELL
    &COORD
Os       8.50000000       8.50000000       8.59845025       
O       8.50000000       8.50000000      10.31921044       
F       8.50000000       8.50000000       6.68078956      
F       7.15837480       9.84162520       8.43632659     
F       7.15837480       7.15837480       8.43632659    
F       9.84162520       7.15837480       8.43632659   
F       9.84162520       9.84162520       8.43632659  
    &END COORD
    &KIND Os
      BASIS_SET def2-QZVPP
      POTENTIAL GTH-PBE-q16
    &END KIND
    &KIND O
      BASIS_SET def2-QZVPP
      POTENTIAL ALL
    &END KIND
    &KIND F
      BASIS_SET def2-QZVPP
      POTENTIAL ALL
    &END KIND
  &END SUBSYS
&END FORCE_EVAL
&GLOBAL
  PROJECT refOsOF5
  RUN_TYPE ENERGY
  PRINT_LEVEL LOW
&END GLOBAL
