&GLOBAL
  PROJECT molopt
  PROGRAM_NAME OPTIMIZE_BASIS
&END GLOBAL
&OPTIMIZE_BASIS

   ! BASIS_TEMPLATE_FILE contains a basis set which is used as a 
   ! starting point for optimization
   BASIS_TEMPLATE_FILE ./BASIS_INPUT

   ! BASIS_WORK_FILE contains the basis set generated with the information below
   BASIS_WORK_FILE WORK_BASIS_STRUCTURE

   ! BASIS_OUTPUT_FILE contains the result basis and intermediate basis set. 
   BASIS_OUTPUT_FILE molopt_dzvp_q9

   ! specify basis set combinations being fitted together
   BASIS_COMBINATIONS 0 0 0 0 0 0 0 0

   USE_CONDITION_NUMBER 

   ! specify the weights on the CN for all combinations
   CONDITION_WEIGHT 0.01 ! 0

   ! specify the weights on the residuums for all combinations
   RESIDUUM_WEIGHT 10  ! 0

   WRITE_FREQUENCY 100

   &OPTIMIZATION
      MAX_FUN 50000
      ACCURACY  1.e-14
   &END

   &TRAINING_FILES
     INPUT_FILE_NAME Na2O-ref.inp  
   &END
   &TRAINING_FILES
     INPUT_FILE_NAME Na2S-ref.inp  
   &END
   &TRAINING_FILES
     INPUT_FILE_NAME Na3N-ref.inp  
   &END
   &TRAINING_FILES
     INPUT_FILE_NAME Na3P-ref.inp  
   &END
   &TRAINING_FILES
     INPUT_FILE_NAME NaCl-ref.inp  
   &END
   &TRAINING_FILES
     INPUT_FILE_NAME NaF-ref.inp  
   &END
   &TRAINING_FILES
     INPUT_FILE_NAME NaH-ref.inp
   &END

#########################################################
   &FIT_KIND Na
     BASIS_SET DZVP-MOLOPT-SCAN-GTH-q9
     INITIAL_DEGREES_OF_FREEDOM ALL
   &END 
#########################################################
   &FIT_KIND H
     BASIS_SET DZVP-MOLOPT-SCAN-GTH-q1
     INITIAL_DEGREES_OF_FREEDOM NONE
   &END   
   &FIT_KIND N
     BASIS_SET DZVP-MOLOPT-SCAN-GTH-q5
     INITIAL_DEGREES_OF_FREEDOM NONE
   &END 
   &FIT_KIND O
     BASIS_SET DZVP-MOLOPT-SCAN-GTH-q6
     INITIAL_DEGREES_OF_FREEDOM NONE
   &END 
   &FIT_KIND F
     BASIS_SET DZVP-MOLOPT-SCAN-GTH-q7
     INITIAL_DEGREES_OF_FREEDOM NONE
   &END
   &FIT_KIND P 
     BASIS_SET DZVP-MOLOPT-SCAN-GTH-q5
     INITIAL_DEGREES_OF_FREEDOM NONE
   &END 
   &FIT_KIND S 
     BASIS_SET DZVP-MOLOPT-SCAN-GTH-q6
     INITIAL_DEGREES_OF_FREEDOM NONE
   &END 
   &FIT_KIND Cl
     BASIS_SET DZVP-MOLOPT-SCAN-GTH-q7
     INITIAL_DEGREES_OF_FREEDOM NONE
   &END 
 &END 
&END
