&FORCE_EVAL
  METHOD Quickstep
  &DFT
    BASIS_SET_FILE_NAME ../def2QZVPP
    POTENTIAL_FILE_NAME ../POTENTIAL
    &MGRID
      CUTOFF 600
      REL_CUTOFF  60
    &END MGRID
    &QS
      METHOD GAPW
      EPS_DEFAULT 1.0E-14
    &END QS
    &SCF
      EPS_SCF 1.0E-7
      MAX_SCF 20
      SCF_GUESS ATOMIC
      &OT
         MINIMIZER DIIS
         PRECONDITIONER FULL_ALL
         STEPSIZE 0.1
      &END OT
      &OUTER_SCF
        EPS_SCF 1.0E-7
        MAX_SCF 5
      &END 
    &END SCF
    &XC
      &XC_FUNCTIONAL PBE
      &END XC_FUNCTIONAL
    &END XC
  &END DFT
  &SUBSYS
    &CELL
      ABC 12.0 12.0 12.0
    &END CELL
    &COORD
Hg       9.00000000       9.00000000       9.00000000       
C       9.00000000       9.00000000      11.13605625       
C       9.00000000       9.00000000       6.86394375      
H       9.90033246       8.48019281      11.52082415     
H       9.90033246       9.51980719       6.47917585    
H       9.00000000      10.03961437      11.52082415   
H       8.09966754       9.51980719       6.47917585  
H       8.09966754       8.48019281      11.52082415 
H       9.00000000       7.96038563       6.47917585
    &END COORD
    &KIND Hg
      BASIS_SET def2-QZVPP
      POTENTIAL GTH-PBE-q20
    &END KIND
    &KIND H
      BASIS_SET def2-QZVPP
      POTENTIAL ALL
    &END KIND
    &KIND C
      BASIS_SET def2-QZVPP
      POTENTIAL ALL
    &END KIND
  &END SUBSYS
&END FORCE_EVAL
&GLOBAL
  PROJECT refHgMe2
  RUN_TYPE ENERGY
  PRINT_LEVEL LOW
&END GLOBAL
