&FORCE_EVAL
  METHOD Quickstep
  &DFT
    BASIS_SET_FILE_NAME /data/hutter/GITHUB/BASIS/UZH2018/PBE/PBE_UCBASIS
    POTENTIAL_FILE_NAME /data/hutter/GITHUB/GTH/PBE/POTENTIAL
    &MGRID
      CUTOFF 500
      REL_CUTOFF  60
    &END MGRID
    &QS
      EPS_DEFAULT 1.0E-12
      MAP_CONSISTENT
      EXTRAPOLATION PS
      EXTRAPOLATION_ORDER 3
    &END QS
    &SCF
      EPS_SCF 1.0E-7
      SCF_GUESS ATOMIC
      MAX_SCF 100
      &OT
         MINIMIZER DIIS
         PRECONDITIONER FULL_ALL
      &END OT
    &END SCF
    &XC
      &XC_FUNCTIONAL PBE
      &END XC_FUNCTIONAL
    &END XC
  &END DFT
  &SUBSYS
    &CELL
      ABC 12.0 12.0 12.0
    &END CELL
    &COORD
  C         0.000000        0.000000       -1.173614
  C         0.000000        0.000000        0.279380
  N         0.000000        0.000000        1.441172
  H         0.000000        1.029275       -1.554710
  H         0.891377       -0.514634       -1.554710
  H        -0.891377       -0.514634       -1.554710
    &END COORD
    &KIND H
      BASIS_SET uc-bas-q1
      POTENTIAL GTH-PBE-q1
    &END KIND
    &KIND C
      BASIS_SET uc-bas-q4
      POTENTIAL GTH-PBE-q4
    &END KIND
    &KIND N
      BASIS_SET uc-bas-q5
      POTENTIAL GTH-PBE-q5
    &END KIND
  &END SUBSYS
&END FORCE_EVAL
&GLOBAL
  PROJECT refCH3CN
  RUN_TYPE ENERGY
  PRINT_LEVEL LOW
&END GLOBAL
