&FORCE_EVAL
  METHOD Quickstep
  &DFT
    BASIS_SET_FILE_NAME /data/hutter/GITHUB/BASIS/UZH2018/PBE/PBE_UCBASIS
    POTENTIAL_FILE_NAME /data/hutter/GITHUB/GTH/PBE/POTENTIAL
    &MGRID
      CUTOFF 500
      REL_CUTOFF  60
    &END MGRID
    &QS
      EPS_DEFAULT 1.0E-12
      MAP_CONSISTENT
      EXTRAPOLATION PS
      EXTRAPOLATION_ORDER 3
    &END QS
    &SCF
      EPS_SCF 1.0E-5
      SCF_GUESS ATOMIC
      MAX_SCF 10
      &OT
         MINIMIZER DIIS
         PRECONDITIONER FULL_ALL
      &END OT
      &OUTER_SCF
         EPS_SCF 1.0E-5
         MAX_SCF 5
      &END
    &END SCF
    &XC
      &XC_FUNCTIONAL PBE
      &END XC_FUNCTIONAL
    &END XC
  &END DFT
  &SUBSYS
    &CELL
      ABC 12.0 12.0 12.0
    &END CELL
    &COORD
  O        -0.0746655997        0.0005532306       -0.6074411320
  O         0.0746995050       -0.0005532749        0.6074451394
    &END COORD
    &KIND O
      BASIS_SET uc-bas-q6
      POTENTIAL GTH-PBE-q6
    &END KIND
  &END SUBSYS
&END FORCE_EVAL
&GLOBAL
  PROJECT refO2
  RUN_TYPE ENERGY 
  PRINT_LEVEL LOW
&END GLOBAL
