&GLOBAL
  PROJECT molopt
  PROGRAM_NAME OPTIMIZE_BASIS
&END GLOBAL
&OPTIMIZE_BASIS

   ! BASIS_TEMPLATE_FILE contains a basis set which is used as a 
   ! starting point for optimization
   BASIS_TEMPLATE_FILE ./BASIS_INPUT

   ! BASIS_WORK_FILE contains the basis set generated with the information below
   BASIS_WORK_FILE WORK_BASIS_STRUCTURE

   ! BASIS_OUTPUT_FILE contains the result basis and intermediate basis set. 
   BASIS_OUTPUT_FILE molopt_dzvp

   ! specify basis set combinations being fitted together
   BASIS_COMBINATIONS 0 0 0 0 0

   USE_CONDITION_NUMBER 

   ! specify the weights on the CN for all combinations
   CONDITION_WEIGHT 0.01 ! 0

   ! specify the weights on the residuums for all combinations
   RESIDUUM_WEIGHT 10  ! 0

   WRITE_FREQUENCY 100

   &OPTIMIZATION
      MAX_FUN 100000
   &END

   &TRAINING_FILES
      INPUT_FILE_NAME NF3-ref.inp
   &END
   &TRAINING_FILES
      INPUT_FILE_NAME HNO2-ref.inp
   &END
   &TRAINING_FILES
      INPUT_FILE_NAME HF-ref.inp
   &END
   &TRAINING_FILES
      INPUT_FILE_NAME H2-ref.inp
   &END
   &TRAINING_FILES
      INPUT_FILE_NAME N2-ref.inp
   &END
   &TRAINING_FILES
      INPUT_FILE_NAME H2O-ref.inp
   &END
   &TRAINING_FILES
      INPUT_FILE_NAME H2CO-ref.inp
   &END
   &TRAINING_FILES
      INPUT_FILE_NAME CH4-ref.inp
   &END
   &TRAINING_FILES
      INPUT_FILE_NAME CH3CN-ref.inp
   &END
   &TRAINING_FILES
      INPUT_FILE_NAME CH2F2-ref.inp
   &END
   &TRAINING_FILES
      INPUT_FILE_NAME C6H5OH-ref.inp
   &END
   &TRAINING_FILES
      INPUT_FILE_NAME C5H5N-ref.inp
   &END
   &TRAINING_FILES
      INPUT_FILE_NAME C4H4N2-ref.inp
   &END
   &TRAINING_FILES
      INPUT_FILE_NAME C2H4-ref.inp
   &END
   &TRAINING_FILES
      INPUT_FILE_NAME C2H2-ref.inp
   &END
   &TRAINING_FILES
      INPUT_FILE_NAME F2-ref.inp
   &END
   &TRAINING_FILES
      INPUT_FILE_NAME O2-ref.inp
   &END
   &TRAINING_FILES
      INPUT_FILE_NAME HCN-ref.inp
   &END
   &TRAINING_FILES
      INPUT_FILE_NAME NO2-ref.inp
   &END
   &TRAINING_FILES
      INPUT_FILE_NAME CO-ref.inp
   &END

   &FIT_KIND H
     BASIS_SET DZVP-MOLOPT-PBE-GTH
     INITIAL_DEGREES_OF_FREEDOM ALL
   &END   
   &FIT_KIND C
     BASIS_SET DZVP-MOLOPT-PBE-GTH
     INITIAL_DEGREES_OF_FREEDOM ALL
   &END 
   &FIT_KIND N
     BASIS_SET DZVP-MOLOPT-PBE-GTH
     INITIAL_DEGREES_OF_FREEDOM ALL
   &END 
   &FIT_KIND O
     BASIS_SET DZVP-MOLOPT-PBE-GTH
     INITIAL_DEGREES_OF_FREEDOM ALL
   &END 
   &FIT_KIND F
     BASIS_SET DZVP-MOLOPT-PBE-GTH
     INITIAL_DEGREES_OF_FREEDOM ALL
   &END
 &END 
&END
