
  **** **** ******  **  PROGRAM STARTED AT               2026-10-07 14:14:53.659
 ***** ** ***  *** **   PROGRAM STARTED ON                               tcopt10
 **    ****   ******    PROGRAM STARTED BY                                hutter
 ***** **    ** ** **   PROGRAM PROCESS ID                               3007798
  **** **  *******  **  PROGRAM STARTED IN /data/hutter/GITHUB/BASIS/MOLOPT/PBE/
                                           hbcnof

 CP2K| version string:                 CP2K version 2026.2 (Development Version)
 CP2K| source code revision number:                                   f8ec2fc486
 CP2K| cp2kflags: omp libint fftw3 libxc libxc_gpu elpa parallel scalapack mpi_f
 CP2K|            08 cosma libxs libxsmm spglib openblas libdftd4 s_dftd3 mctc-l
 CP2K|            lib tblite libvori libbqb
 CP2K| is freely available from                            https://www.cp2k.org/
 CP2K| Program compiled at                                   2026-10-07 14:12:36
 CP2K| Program compiled on                                               tcopt10
 CP2K| Program compiled with                                  GCC version 14.3.0
 CP2K| Program compiled for                                               x86_64
 CP2K| Data directory path                 /data/hutter/GITHUB/CURRENT/cp2k/data
 CP2K| Input file name                                              opt-dzvp.inp

 GLOBAL| Method name                                              OPTIMIZE_BASIS
 GLOBAL| Project name                                                     molopt
 GLOBAL| Run type                                                   ENERGY_FORCE
 GLOBAL| FFT library                                                       FFTW3
 GLOBAL| Diagonalization library                                       ScaLAPACK
 GLOBAL| Cholesky decomposition library                                ScaLAPACK
 GLOBAL| DGEMM library                                                      BLAS
 GLOBAL| Direct generalized diagonalization requested                          F
 GLOBAL| Orthonormality check for eigenvectors                          DISABLED
 GLOBAL| Matrix multiplication library                                     COSMA
 GLOBAL| All-to-all communication in single precision                          F
 GLOBAL| Grid backend                                                       AUTO
 GLOBAL| Global print level                                               MEDIUM
 GLOBAL| MPI I/O enabled                                                       T
 GLOBAL| Total number of message passing processes                            36
 GLOBAL| Number of distributed systems (nodes)                                 1
 GLOBAL| Number of threads for this process                                    1
 GLOBAL| This output is from process                                           0
 GLOBAL| OpenMP stack size per thread (OMP_STACKSIZE)                    default
 GLOBAL| CPU model name                          AMD EPYC 7401 24-Core Processor
 GLOBAL| CPUID                                                              1002

 MEMORY| system memory details [Kb]
 MEMORY|                        rank 0           min           max       average
 MEMORY| MemTotal            263953172     263953172     263953172     263953172
 MEMORY| MemFree             235144320     235144320     235144320     235144320
 MEMORY| Buffers                     8             8             8             8
 MEMORY| Cached               20064120      20064120      20064120      20064120
 MEMORY| Slab                  2384252       2384252       2384252       2384252
 MEMORY| SReclaimable          1120040       1120040       1120040       1120040
 MEMORY| MemLikelyFree       256328488     256328488     256328488     256328488


 *** Fundamental physical constants (SI units) ***

 *** Literature: B. J. Mohr and B. N. Taylor,
 ***             CODATA recommended values of the fundamental physical
 ***             constants: 2006, Web Version 5.1
 ***             http://physics.nist.gov/constants

 Speed of light in vacuum [m/s]                             2.99792458000000E+08
 Magnetic constant or permeability of vacuum [N/A**2]       1.25663706143592E-06
 Electric constant or permittivity of vacuum [F/m]          8.85418781762039E-12
 Planck constant (h) [J*s]                                  6.62606896000000E-34
 Planck constant (h-bar) [J*s]                              1.05457162825177E-34
 Elementary charge [C]                                      1.60217648700000E-19
 Electron mass [kg]                                         9.10938215000000E-31
 Electron g factor [ ]                                     -2.00231930436220E+00
 Proton mass [kg]                                           1.67262163700000E-27
 Fine-structure constant                                    7.29735253760000E-03
 Rydberg constant [1/m]                                     1.09737315685270E+07
 Avogadro constant [1/mol]                                  6.02214179000000E+23
 Boltzmann constant [J/K]                                   1.38065040000000E-23
 Atomic mass unit [kg]                                      1.66053878200000E-27
 Bohr radius [m]                                            5.29177208590000E-11

 *** Conversion factors ***

 [u] -> [a.u.]                                              1.82288848426455E+03
 [Angstrom] -> [Bohr] = [a.u.]                              1.88972613288564E+00
 [a.u.] = [Bohr] -> [Angstrom]                              5.29177208590000E-01
 [a.u.] -> [s]                                              2.41888432650478E-17
 [a.u.] -> [fs]                                             2.41888432650478E-02
 [a.u.] -> [J]                                              4.35974393937059E-18
 [a.u.] -> [N]                                              8.23872205491840E-08
 [a.u.] -> [K]                                              3.15774647902944E+05
 [a.u.] -> [kJ/mol]                                         2.62549961709828E+03
 [a.u.] -> [kcal/mol]                                       6.27509468713739E+02
 [a.u.] -> [Pa]                                             2.94210107994716E+13
 [a.u.] -> [bar]                                            2.94210107994716E+08
 [a.u.] -> [atm]                                            2.90362800883016E+08
 [a.u.] -> [eV]                                             2.72113838565563E+01
 [a.u.] -> [Hz]                                             6.57968392072181E+15
 [a.u.] -> [1/cm] (wave numbers)                            2.19474631370540E+05
 [a.u./Bohr**2] -> [1/cm]                                   5.14048714338585E+03
 
 DBCSR| CPU Multiplication driver                                           XSMM (U)
 DBCSR| Multrec recursion limit                                              512 (U)
 DBCSR| Multiplication stack size                                           1000 (D)
 DBCSR| Maximum elements for images                                    UNLIMITED (U)
 DBCSR| Multiplicative factor virtual images                                   1 (U)
 DBCSR| Use multiplication densification                                       T (D)
 DBCSR| Multiplication size stacks                                             3 (U)
 DBCSR| Use memory pool for CPU allocation                                     F (U)
 DBCSR| Number of 3D layers                                               SINGLE (U)
 DBCSR| Use MPI memory allocation                                              F (U)
 DBCSR| Use RMA algorithm                                                      F (U)
 DBCSR| Use Communication thread                                               T (U)
 DBCSR| Communication thread load                                             87 (D)
 DBCSR| MPI: My process id                                                     0
 DBCSR| MPI: Number of processes                                              36
 DBCSR| OMP: Current number of threads                                         1
 DBCSR| OMP: Max number of threads                                             1
 DBCSR| Split modifier for TAS multiplication algorithm                  1.0E+00 (U)

 BASOPT| Total number of calculations     44

 BASOPT| Content of basis combination      1
 BASOPT|     Element:    H    Basis set:    DZVP-MOLOPT-PBE-GTH-Q1
 BASOPT|     Element:    B    Basis set:    DZVP-MOLOPT-PBE-GTH-Q3
 BASOPT|     Element:    C    Basis set:    DZVP-MOLOPT-PBE-GTH-Q4
 BASOPT|     Element:    N    Basis set:    DZVP-MOLOPT-PBE-GTH-Q5
 BASOPT|     Element:    O    Basis set:    DZVP-MOLOPT-PBE-GTH-Q6
 BASOPT|     Element:    F    Basis set:    DZVP-MOLOPT-PBE-GTH-Q7

 BASOPT| Information at iteration number:       0
 BASOPT| Training set | Combination | Rho difference | Condition num. | Time
 BASOPT| -----------------------------------------------------------------------
 BASOPT|        1     |       1     | 0.11212154E-02 | 0.17716411E+04 |      0.0
 BASOPT|        2     |       1     | 0.30875360E-02 | 0.10101109E+04 |      0.0
 BASOPT|        3     |       1     | 0.35715809E-02 | 0.22022191E+04 |      0.1
 BASOPT|        4     |       1     | 0.21443571E-02 | 0.87941459E+03 |      0.1
 BASOPT|        5     |       1     | 0.21558717E-02 | 0.33844693E+03 |      0.0
 BASOPT|        6     |       1     | 0.19865842E-02 | 0.82682805E+03 |      0.0
 BASOPT|        7     |       1     | 0.23731447E-02 | 0.94256197E+03 |      0.0
 BASOPT|        8     |       1     | 0.63790850E-03 | 0.35378567E+03 |      0.0
 BASOPT|        9     |       1     | 0.15640376E-02 | 0.46506357E+03 |      0.0
 BASOPT|       10     |       1     | 0.14273432E-02 | 0.12184048E+04 |      0.0
 BASOPT|       11     |       1     | 0.13685558E-02 | 0.66766212E+03 |      0.0
 BASOPT|       12     |       1     | 0.40864642E-02 | 0.24406374E+04 |      0.1
 BASOPT|       13     |       1     | 0.32197635E-02 | 0.11011694E+04 |      0.1
 BASOPT|       14     |       1     | 0.36920723E-02 | 0.28191831E+04 |      0.1
 BASOPT|       15     |       1     | 0.42333107E-02 | 0.35540445E+04 |      0.1
 BASOPT|       16     |       1     | 0.32856892E-02 | 0.32914137E+04 |      0.0
 BASOPT|       17     |       1     | 0.30784461E-02 | 0.45790887E+03 |      0.0
 BASOPT|       18     |       1     | 0.19900952E-02 | 0.53777595E+03 |      0.0
 BASOPT|       19     |       1     | 0.24518387E-02 | 0.63083827E+03 |      0.0
 BASOPT|       20     |       1     | 0.31905508E-02 | 0.80183587E+03 |      0.0
 BASOPT|       21     |       1     | 0.18336486E-02 | 0.62887571E+03 |      0.0
 BASOPT|       22     |       1     | 0.19044751E-02 | 0.55278124E+03 |      0.0
 BASOPT|       23     |       1     | 0.74481849E-03 | 0.36718687E+03 |      0.0
 BASOPT|       24     |       1     | 0.34150617E-02 | 0.14293087E+03 |      0.0
 BASOPT|       25     |       1     | 0.90806572E-03 | 0.17273798E+03 |      0.0
 BASOPT|       26     |       1     | 0.31237794E-02 | 0.92982312E+03 |      0.0
 BASOPT|       27     |       1     | 0.17521288E-02 | 0.45300883E+03 |      0.0
 BASOPT|       28     |       1     | 0.20874659E-02 | 0.47821447E+03 |      0.0
 BASOPT|       29     |       1     | 0.15965088E-02 | 0.40320540E+03 |      0.0
 BASOPT|       30     |       1     | 0.65844185E-03 | 0.23775023E+03 |      0.0
 BASOPT|       31     |       1     | 0.15053796E-02 | 0.84789996E+03 |      0.0
 BASOPT|       32     |       1     | 0.10504191E-02 | 0.20164805E+03 |      0.0
 BASOPT|       33     |       1     | 0.29710716E-02 | 0.45593932E+03 |      0.0
 BASOPT|       34     |       1     | 0.30954886E-02 | 0.13540164E+04 |      0.0
 BASOPT|       35     |       1     | 0.35729888E-02 | 0.23484289E+04 |      0.0
 BASOPT|       36     |       1     | 0.21908016E-02 | 0.81628020E+03 |      0.0
 BASOPT|       37     |       1     | 0.20695608E-02 | 0.12231498E+04 |      0.0
 BASOPT|       38     |       1     | 0.29974852E-02 | 0.11407185E+04 |      0.0
 BASOPT|       39     |       1     | 0.22317040E-02 | 0.10175451E+04 |      0.0
 BASOPT|       40     |       1     | 0.28556129E-02 | 0.97777939E+03 |      0.0
 BASOPT|       41     |       1     | 0.27291065E-02 | 0.12596656E+04 |      0.0
 BASOPT|       42     |       1     | 0.20324975E-02 | 0.70896871E+03 |      0.0
 BASOPT|       43     |       1     | 0.26821058E-02 | 0.76995422E+03 |      0.0
 BASOPT|       44     |       1     | 0.17664559E-02 | 0.33874169E+03 |      0.0
 BASOPT| -----------------------------------------------------------------------
 BASOPT| Total residuum value: -.37254646E+04

 BASOPT| Information at iteration number:     100
 BASOPT| Training set | Combination | Rho difference | Condition num. | Time
 BASOPT| -----------------------------------------------------------------------
 BASOPT|        1     |       1     | 0.11212154E-02 | 0.17716411E+04 |      3.8
 BASOPT|        2     |       1     | 0.30875360E-02 | 0.10101109E+04 |      3.6
 BASOPT|        3     |       1     | 0.94555393E-02 | 0.20263809E+04 |     11.1
 BASOPT|        4     |       1     | 0.21443571E-02 | 0.87941459E+03 |      6.3
 BASOPT|        5     |       1     | 0.21558717E-02 | 0.33844693E+03 |      1.8
 BASOPT|        6     |       1     | 0.19865842E-02 | 0.82682805E+03 |      2.9
 BASOPT|        7     |       1     | 0.47469926E-02 | 0.93671503E+03 |      3.3
 BASOPT|        8     |       1     | 0.63790850E-03 | 0.35378567E+03 |      1.2
 BASOPT|        9     |       1     | 0.15640376E-02 | 0.46506357E+03 |      1.6
 BASOPT|       10     |       1     | 0.14273432E-02 | 0.12184048E+04 |      2.4
 BASOPT|       11     |       1     | 0.13685558E-02 | 0.66766212E+03 |      3.3
 BASOPT|       12     |       1     | 0.82724704E-02 | 0.23201088E+04 |      8.3
 BASOPT|       13     |       1     | 0.32197635E-02 | 0.11011694E+04 |      5.2
 BASOPT|       14     |       1     | 0.56582947E-02 | 0.27653697E+04 |      9.8
 BASOPT|       15     |       1     | 0.42333107E-02 | 0.35540445E+04 |      8.1
 BASOPT|       16     |       1     | 0.32856892E-02 | 0.32914137E+04 |      4.4
 BASOPT|       17     |       1     | 0.30784461E-02 | 0.45790887E+03 |      2.3
 BASOPT|       18     |       1     | 0.19900952E-02 | 0.53777595E+03 |      2.0
 BASOPT|       19     |       1     | 0.24518387E-02 | 0.63083827E+03 |      2.1
 BASOPT|       20     |       1     | 0.54497537E-02 | 0.79308391E+03 |      2.8
 BASOPT|       21     |       1     | 0.40695044E-02 | 0.60599796E+03 |      1.9
 BASOPT|       22     |       1     | 0.19044751E-02 | 0.55278124E+03 |      2.2
 BASOPT|       23     |       1     | 0.74481849E-03 | 0.36718687E+03 |      1.5
 BASOPT|       24     |       1     | 0.34150617E-02 | 0.14293087E+03 |      0.9
 BASOPT|       25     |       1     | 0.90806572E-03 | 0.17273798E+03 |      0.6
 BASOPT|       26     |       1     | 0.31237794E-02 | 0.92982312E+03 |      2.8
 BASOPT|       27     |       1     | 0.17521288E-02 | 0.45300883E+03 |      1.4
 BASOPT|       28     |       1     | 0.20874659E-02 | 0.47821447E+03 |      1.1
 BASOPT|       29     |       1     | 0.15965088E-02 | 0.40320540E+03 |      0.8
 BASOPT|       30     |       1     | 0.65844185E-03 | 0.23775023E+03 |      0.5
 BASOPT|       31     |       1     | 0.39990052E-02 | 0.81007210E+03 |      1.1
 BASOPT|       32     |       1     | 0.10504191E-02 | 0.20164805E+03 |      0.6
 BASOPT|       33     |       1     | 0.52834386E-02 | 0.44574446E+03 |      1.2
 BASOPT|       34     |       1     | 0.48033024E-02 | 0.13209392E+04 |      1.4
 BASOPT|       35     |       1     | 0.50594101E-02 | 0.23273721E+04 |      2.0
 BASOPT|       36     |       1     | 0.50104611E-02 | 0.74646552E+03 |      1.0
 BASOPT|       37     |       1     | 0.81317576E-02 | 0.10866816E+04 |      1.3
 BASOPT|       38     |       1     | 0.77964933E-02 | 0.10899275E+04 |      2.0
 BASOPT|       39     |       1     | 0.91573195E-02 | 0.86199659E+03 |      0.7
 BASOPT|       40     |       1     | 0.15874027E-01 | 0.81723086E+03 |      1.8
 BASOPT|       41     |       1     | 0.51191507E-02 | 0.12375176E+04 |      1.4
 BASOPT|       42     |       1     | 0.42626084E-02 | 0.71161037E+03 |      1.0
 BASOPT|       43     |       1     | 0.55327572E-02 | 0.77094673E+03 |      1.9
 BASOPT|       44     |       1     | 0.17664559E-02 | 0.33874169E+03 |      0.9
 BASOPT| -----------------------------------------------------------------------
 BASOPT| Total residuum value: -.37193815E+04

 BASOPT| Information at iteration number:     200
 BASOPT| Training set | Combination | Rho difference | Condition num. | Time
 BASOPT| -----------------------------------------------------------------------
 BASOPT|        1     |       1     | 0.11218273E-02 | 0.17490112E+04 |      7.6
 BASOPT|        2     |       1     | 0.30870448E-02 | 0.21377021E+04 |      7.2
 BASOPT|        3     |       1     | 0.35770275E-02 | 0.29423402E+04 |     22.1
 BASOPT|        4     |       1     | 0.19592612E-02 | 0.17902315E+04 |     12.6
 BASOPT|        5     |       1     | 0.20197399E-02 | 0.30866521E+03 |      3.6
 BASOPT|        6     |       1     | 0.20283616E-02 | 0.93275138E+03 |      5.8
 BASOPT|        7     |       1     | 0.23619139E-02 | 0.13568035E+04 |      6.6
 BASOPT|        8     |       1     | 0.64021421E-03 | 0.40556049E+03 |      2.4
 BASOPT|        9     |       1     | 0.15640376E-02 | 0.46506357E+03 |      3.3
 BASOPT|       10     |       1     | 0.14273432E-02 | 0.12184048E+04 |      4.8
 BASOPT|       11     |       1     | 0.13685558E-02 | 0.66766212E+03 |      6.7
 BASOPT|       12     |       1     | 0.40864642E-02 | 0.24406374E+04 |     16.5
 BASOPT|       13     |       1     | 0.32197635E-02 | 0.11011694E+04 |     10.4
 BASOPT|       14     |       1     | 0.36920723E-02 | 0.28191831E+04 |     19.5
 BASOPT|       15     |       1     | 0.42333107E-02 | 0.35540445E+04 |     16.2
 BASOPT|       16     |       1     | 0.32856892E-02 | 0.32914137E+04 |      8.8
 BASOPT|       17     |       1     | 0.30784461E-02 | 0.45790887E+03 |      4.5
 BASOPT|       18     |       1     | 0.19900952E-02 | 0.53777595E+03 |      3.9
 BASOPT|       19     |       1     | 0.24518387E-02 | 0.63083827E+03 |      4.1
 BASOPT|       20     |       1     | 0.31905508E-02 | 0.80183587E+03 |      5.6
 BASOPT|       21     |       1     | 0.18336486E-02 | 0.62887571E+03 |      3.8
 BASOPT|       22     |       1     | 0.19044751E-02 | 0.55278124E+03 |      4.3
 BASOPT|       23     |       1     | 0.74481849E-03 | 0.36718687E+03 |      2.9
 BASOPT|       24     |       1     | 0.34150617E-02 | 0.14293087E+03 |      1.7
 BASOPT|       25     |       1     | 0.90806572E-03 | 0.17273798E+03 |      1.2
 BASOPT|       26     |       1     | 0.31237794E-02 | 0.92982312E+03 |      5.6
 BASOPT|       27     |       1     | 0.17521288E-02 | 0.45300883E+03 |      2.8
 BASOPT|       28     |       1     | 0.20874659E-02 | 0.47821447E+03 |      2.2
 BASOPT|       29     |       1     | 0.15965088E-02 | 0.40320540E+03 |      1.5
 BASOPT|       30     |       1     | 0.65844185E-03 | 0.23775023E+03 |      0.9
 BASOPT|       31     |       1     | 0.15053796E-02 | 0.84789996E+03 |      2.3
 BASOPT|       32     |       1     | 0.10504191E-02 | 0.20164805E+03 |      1.1
 BASOPT|       33     |       1     | 0.29710716E-02 | 0.45593932E+03 |      2.3
 BASOPT|       34     |       1     | 0.30954886E-02 | 0.13540164E+04 |      2.8
 BASOPT|       35     |       1     | 0.35729888E-02 | 0.23484289E+04 |      4.0
 BASOPT|       36     |       1     | 0.21908016E-02 | 0.81628020E+03 |      1.9
 BASOPT|       37     |       1     | 0.20695608E-02 | 0.12231498E+04 |      2.5
 BASOPT|       38     |       1     | 0.29974852E-02 | 0.11407185E+04 |      3.9
 BASOPT|       39     |       1     | 0.22317040E-02 | 0.10175451E+04 |      1.4
 BASOPT|       40     |       1     | 0.28556129E-02 | 0.97777939E+03 |      3.7
 BASOPT|       41     |       1     | 0.27291065E-02 | 0.12596656E+04 |      2.8
 BASOPT|       42     |       1     | 0.20324975E-02 | 0.70896871E+03 |      2.0
 BASOPT|       43     |       1     | 0.26821058E-02 | 0.76995422E+03 |      3.7
 BASOPT|       44     |       1     | 0.17664559E-02 | 0.33874169E+03 |      1.8
 BASOPT| -----------------------------------------------------------------------
 BASOPT| Total residuum value: -.37254363E+04

 BASOPT| Information at iteration number:     300
 BASOPT| Training set | Combination | Rho difference | Condition num. | Time
 BASOPT| -----------------------------------------------------------------------
 BASOPT|        1     |       1     | 0.11212154E-02 | 0.17716411E+04 |     11.4
 BASOPT|        2     |       1     | 0.13361765E-01 | 0.11652729E+04 |     10.8
 BASOPT|        3     |       1     | 0.35715809E-02 | 0.22022191E+04 |     33.2
 BASOPT|        4     |       1     | 0.21443571E-02 | 0.87941459E+03 |     18.9
 BASOPT|        5     |       1     | 0.21558717E-02 | 0.33844693E+03 |      5.4
 BASOPT|        6     |       1     | 0.55401414E-02 | 0.83996569E+03 |      8.8
 BASOPT|        7     |       1     | 0.23731447E-02 | 0.94256197E+03 |      9.9
 BASOPT|        8     |       1     | 0.63790850E-03 | 0.35378567E+03 |      3.6
 BASOPT|        9     |       1     | 0.15640376E-02 | 0.46506357E+03 |      5.0
 BASOPT|       10     |       1     | 0.14273432E-02 | 0.12184048E+04 |      7.3
 BASOPT|       11     |       1     | 0.13685558E-02 | 0.66766212E+03 |     10.1
 BASOPT|       12     |       1     | 0.40864642E-02 | 0.24406374E+04 |     25.1
 BASOPT|       13     |       1     | 0.32197635E-02 | 0.11011694E+04 |     15.9
 BASOPT|       14     |       1     | 0.36920723E-02 | 0.28191831E+04 |     29.8
 BASOPT|       15     |       1     | 0.76610233E-02 | 0.35764082E+04 |     24.9
 BASOPT|       16     |       1     | 0.32856892E-02 | 0.32914137E+04 |     13.5
 BASOPT|       17     |       1     | 0.30784461E-02 | 0.45790887E+03 |      6.8
 BASOPT|       18     |       1     | 0.19900952E-02 | 0.53777595E+03 |      5.9
 BASOPT|       19     |       1     | 0.99081826E-02 | 0.66956289E+03 |      6.2
 BASOPT|       20     |       1     | 0.31905508E-02 | 0.80183587E+03 |      8.6
 BASOPT|       21     |       1     | 0.18336486E-02 | 0.62887571E+03 |      5.7
 BASOPT|       22     |       1     | 0.54611713E-02 | 0.54513242E+03 |      6.5
 BASOPT|       23     |       1     | 0.74481849E-03 | 0.36718687E+03 |      4.4
 BASOPT|       24     |       1     | 0.68173304E-02 | 0.16250419E+03 |      2.6
 BASOPT|       25     |       1     | 0.90806572E-03 | 0.17273798E+03 |      1.8
 BASOPT|       26     |       1     | 0.13181119E-01 | 0.97107653E+03 |      8.4
 BASOPT|       27     |       1     | 0.55010948E-02 | 0.47004527E+03 |      4.2
 BASOPT|       28     |       1     | 0.89082074E-02 | 0.53682725E+03 |      3.3
 BASOPT|       29     |       1     | 0.52022606E-02 | 0.40161556E+03 |      2.3
 BASOPT|       30     |       1     | 0.65844185E-03 | 0.23775023E+03 |      1.4
 BASOPT|       31     |       1     | 0.15053796E-02 | 0.84789996E+03 |      3.4
 BASOPT|       32     |       1     | 0.10504191E-02 | 0.20164805E+03 |      1.6
 BASOPT|       33     |       1     | 0.29710716E-02 | 0.45593932E+03 |      3.5
 BASOPT|       34     |       1     | 0.10076778E-01 | 0.14947182E+04 |      4.2
 BASOPT|       35     |       1     | 0.13255180E-01 | 0.25997016E+04 |      6.0
 BASOPT|       36     |       1     | 0.57037648E-02 | 0.86639160E+03 |      2.8
 BASOPT|       37     |       1     | 0.20695608E-02 | 0.12231498E+04 |      3.7
 BASOPT|       38     |       1     | 0.29974852E-02 | 0.11407185E+04 |      5.9
 BASOPT|       39     |       1     | 0.22317040E-02 | 0.10175451E+04 |      2.1
 BASOPT|       40     |       1     | 0.28556129E-02 | 0.97777939E+03 |      5.5
 BASOPT|       41     |       1     | 0.27291065E-02 | 0.12596656E+04 |      4.1
 BASOPT|       42     |       1     | 0.20324975E-02 | 0.70896871E+03 |      3.0
 BASOPT|       43     |       1     | 0.26821058E-02 | 0.76995422E+03 |      5.6
 BASOPT|       44     |       1     | 0.51804181E-02 | 0.37887095E+03 |      2.7
 BASOPT| -----------------------------------------------------------------------
 BASOPT| Total residuum value: -.37161628E+04

 BASOPT| Information at iteration number:     400
 BASOPT| Training set | Combination | Rho difference | Condition num. | Time
 BASOPT| -----------------------------------------------------------------------
 BASOPT|        1     |       1     | 0.11162136E-02 | 0.17467741E+04 |     15.1
 BASOPT|        2     |       1     | 0.30916456E-02 | 0.10146391E+04 |     14.3
 BASOPT|        3     |       1     | 0.35539123E-02 | 0.21540471E+04 |     44.2
 BASOPT|        4     |       1     | 0.21547032E-02 | 0.87369870E+03 |     25.2
 BASOPT|        5     |       1     | 0.21540368E-02 | 0.33661957E+03 |      7.2
 BASOPT|        6     |       1     | 0.19830532E-02 | 0.82419245E+03 |     11.7
 BASOPT|        7     |       1     | 0.23531356E-02 | 0.92641401E+03 |     13.2
 BASOPT|        8     |       1     | 0.63434831E-03 | 0.34798084E+03 |      4.8
 BASOPT|        9     |       1     | 0.15790242E-02 | 0.45800371E+03 |      6.6
 BASOPT|       10     |       1     | 0.14330799E-02 | 0.11975529E+04 |      9.6
 BASOPT|       11     |       1     | 0.13594274E-02 | 0.65590886E+03 |     13.4
 BASOPT|       12     |       1     | 0.40601188E-02 | 0.23734918E+04 |     33.3
 BASOPT|       13     |       1     | 0.32221514E-02 | 0.10848479E+04 |     21.0
 BASOPT|       14     |       1     | 0.36758589E-02 | 0.27733030E+04 |     39.5
 BASOPT|       15     |       1     | 0.42340852E-02 | 0.35317619E+04 |     33.0
 BASOPT|       16     |       1     | 0.32863382E-02 | 0.32688546E+04 |     17.9
 BASOPT|       17     |       1     | 0.30685574E-02 | 0.45972243E+03 |      9.0
 BASOPT|       18     |       1     | 0.19855165E-02 | 0.53183434E+03 |      7.8
 BASOPT|       19     |       1     | 0.24478721E-02 | 0.62105432E+03 |      8.2
 BASOPT|       20     |       1     | 0.31861365E-02 | 0.78960840E+03 |     11.4
 BASOPT|       21     |       1     | 0.18190778E-02 | 0.61911323E+03 |      7.6
 BASOPT|       22     |       1     | 0.19056410E-02 | 0.54483930E+03 |      8.7
 BASOPT|       23     |       1     | 0.74150863E-03 | 0.36144383E+03 |      5.8
 BASOPT|       24     |       1     | 0.34182702E-02 | 0.14326194E+03 |      3.4
 BASOPT|       25     |       1     | 0.90939816E-03 | 0.17290477E+03 |      2.4
 BASOPT|       26     |       1     | 0.31222591E-02 | 0.93047469E+03 |     11.1
 BASOPT|       27     |       1     | 0.17515886E-02 | 0.45034255E+03 |      5.6
 BASOPT|       28     |       1     | 0.20941650E-02 | 0.47443422E+03 |      4.4
 BASOPT|       29     |       1     | 0.16097401E-02 | 0.39711836E+03 |      3.0
 BASOPT|       30     |       1     | 0.65612682E-03 | 0.23221460E+03 |      1.8
 BASOPT|       31     |       1     | 0.14608901E-02 | 0.83820453E+03 |      4.5
 BASOPT|       32     |       1     | 0.10553285E-02 | 0.19962017E+03 |      2.2
 BASOPT|       33     |       1     | 0.29570824E-02 | 0.44317844E+03 |      4.7
 BASOPT|       34     |       1     | 0.30653456E-02 | 0.13328255E+04 |      5.6
 BASOPT|       35     |       1     | 0.35609988E-02 | 0.23177677E+04 |      8.0
 BASOPT|       36     |       1     | 0.21588301E-02 | 0.80041149E+03 |      3.8
 BASOPT|       37     |       1     | 0.20507959E-02 | 0.11935748E+04 |      5.0
 BASOPT|       38     |       1     | 0.29831570E-02 | 0.11275431E+04 |      7.9
 BASOPT|       39     |       1     | 0.21129241E-02 | 0.98768989E+03 |      2.8
 BASOPT|       40     |       1     | 0.27357889E-02 | 0.95365192E+03 |      7.3
 BASOPT|       41     |       1     | 0.27001665E-02 | 0.12695962E+04 |      5.5
 BASOPT|       42     |       1     | 0.20352640E-02 | 0.70140732E+03 |      3.9
 BASOPT|       43     |       1     | 0.26797047E-02 | 0.75960584E+03 |      7.4
 BASOPT|       44     |       1     | 0.17642467E-02 | 0.33887451E+03 |      3.6
 BASOPT| -----------------------------------------------------------------------
 BASOPT| Total residuum value: -.37254950E+04

 BASOPT| Information at iteration number:     500
 BASOPT| Training set | Combination | Rho difference | Condition num. | Time
 BASOPT| -----------------------------------------------------------------------
 BASOPT|        1     |       1     | 0.11516379E-02 | 0.18008490E+04 |     18.9
 BASOPT|        2     |       1     | 0.30237629E-02 | 0.10117870E+04 |     17.9
 BASOPT|        3     |       1     | 0.36213986E-02 | 0.21622142E+04 |     55.1
 BASOPT|        4     |       1     | 0.21305101E-02 | 0.91231383E+03 |     31.4
 BASOPT|        5     |       1     | 0.21730377E-02 | 0.35256724E+03 |      9.0
 BASOPT|        6     |       1     | 0.20069204E-02 | 0.84263823E+03 |     14.6
 BASOPT|        7     |       1     | 0.24637139E-02 | 0.91397410E+03 |     16.5
 BASOPT|        8     |       1     | 0.66495006E-03 | 0.35131019E+03 |      6.0
 BASOPT|        9     |       1     | 0.15920021E-02 | 0.45863201E+03 |      8.2
 BASOPT|       10     |       1     | 0.14589559E-02 | 0.11861863E+04 |     12.0
 BASOPT|       11     |       1     | 0.13862316E-02 | 0.65127818E+03 |     16.7
 BASOPT|       12     |       1     | 0.40621038E-02 | 0.23948603E+04 |     41.5
 BASOPT|       13     |       1     | 0.32559280E-02 | 0.10837824E+04 |     26.1
 BASOPT|       14     |       1     | 0.36947315E-02 | 0.27869367E+04 |     49.1
 BASOPT|       15     |       1     | 0.42598979E-02 | 0.35188512E+04 |     41.0
 BASOPT|       16     |       1     | 0.33312003E-02 | 0.32570712E+04 |     22.3
 BASOPT|       17     |       1     | 0.30967743E-02 | 0.46972400E+03 |     11.2
 BASOPT|       18     |       1     | 0.19831104E-02 | 0.53354656E+03 |      9.7
 BASOPT|       19     |       1     | 0.24335665E-02 | 0.62051467E+03 |     10.2
 BASOPT|       20     |       1     | 0.31786656E-02 | 0.78874913E+03 |     14.2
 BASOPT|       21     |       1     | 0.18160930E-02 | 0.62094579E+03 |      9.4
 BASOPT|       22     |       1     | 0.19117720E-02 | 0.54100067E+03 |     10.8
 BASOPT|       23     |       1     | 0.75979121E-03 | 0.36076580E+03 |      7.2
 BASOPT|       24     |       1     | 0.34029493E-02 | 0.14395711E+03 |      4.2
 BASOPT|       25     |       1     | 0.89542762E-03 | 0.17420168E+03 |      3.0
 BASOPT|       26     |       1     | 0.30952363E-02 | 0.93479878E+03 |     13.9
 BASOPT|       27     |       1     | 0.17664335E-02 | 0.44987700E+03 |      7.0
 BASOPT|       28     |       1     | 0.20721492E-02 | 0.47293958E+03 |      5.5
 BASOPT|       29     |       1     | 0.16196230E-02 | 0.39346871E+03 |      3.7
 BASOPT|       30     |       1     | 0.67588526E-03 | 0.23043944E+03 |      2.3
 BASOPT|       31     |       1     | 0.14596807E-02 | 0.84277586E+03 |      5.6
 BASOPT|       32     |       1     | 0.10332596E-02 | 0.20006682E+03 |      2.7
 BASOPT|       33     |       1     | 0.29349747E-02 | 0.44115285E+03 |      5.8
 BASOPT|       34     |       1     | 0.30606304E-02 | 0.13266249E+04 |      7.0
 BASOPT|       35     |       1     | 0.35226872E-02 | 0.23021886E+04 |      9.9
 BASOPT|       36     |       1     | 0.21644262E-02 | 0.79723456E+03 |      4.7
 BASOPT|       37     |       1     | 0.20487068E-02 | 0.11922602E+04 |      6.2
 BASOPT|       38     |       1     | 0.29693507E-02 | 0.11234117E+04 |      9.8
 BASOPT|       39     |       1     | 0.21391135E-02 | 0.98906382E+03 |      3.4
 BASOPT|       40     |       1     | 0.27062758E-02 | 0.95539899E+03 |      9.1
 BASOPT|       41     |       1     | 0.26848044E-02 | 0.12962255E+04 |      6.9
 BASOPT|       42     |       1     | 0.20285736E-02 | 0.69899318E+03 |      4.9
 BASOPT|       43     |       1     | 0.26376104E-02 | 0.76545552E+03 |      9.3
 BASOPT|       44     |       1     | 0.17397850E-02 | 0.34173407E+03 |      4.5
 BASOPT| -----------------------------------------------------------------------
 BASOPT| Total residuum value: -.37254890E+04

 BASOPT| Information at iteration number:     600
 BASOPT| Training set | Combination | Rho difference | Condition num. | Time
 BASOPT| -----------------------------------------------------------------------
 BASOPT|        1     |       1     | 0.11682593E-02 | 0.18124050E+04 |     22.7
 BASOPT|        2     |       1     | 0.30654224E-02 | 0.94628202E+03 |     21.5
 BASOPT|        3     |       1     | 0.36348795E-02 | 0.20801452E+04 |     66.1
 BASOPT|        4     |       1     | 0.21397537E-02 | 0.91646197E+03 |     37.6
 BASOPT|        5     |       1     | 0.22753701E-02 | 0.35953375E+03 |     10.8
 BASOPT|        6     |       1     | 0.20224840E-02 | 0.86021350E+03 |     17.5
 BASOPT|        7     |       1     | 0.24917308E-02 | 0.90400899E+03 |     19.7
 BASOPT|        8     |       1     | 0.66278916E-03 | 0.34811846E+03 |      7.2
 BASOPT|        9     |       1     | 0.16053138E-02 | 0.46024406E+03 |      9.8
 BASOPT|       10     |       1     | 0.14291602E-02 | 0.11980451E+04 |     14.3
 BASOPT|       11     |       1     | 0.13298792E-02 | 0.65560604E+03 |     20.0
 BASOPT|       12     |       1     | 0.40345018E-02 | 0.24347161E+04 |     49.6
 BASOPT|       13     |       1     | 0.32269738E-02 | 0.10899234E+04 |     31.3
 BASOPT|       14     |       1     | 0.36512044E-02 | 0.28423890E+04 |     58.8
 BASOPT|       15     |       1     | 0.41970000E-02 | 0.36162325E+04 |     49.1
 BASOPT|       16     |       1     | 0.32711979E-02 | 0.33428569E+04 |     26.7
 BASOPT|       17     |       1     | 0.32094082E-02 | 0.47069960E+03 |     13.4
 BASOPT|       18     |       1     | 0.19827638E-02 | 0.53650864E+03 |     11.6
 BASOPT|       19     |       1     | 0.24143021E-02 | 0.62574207E+03 |     12.3
 BASOPT|       20     |       1     | 0.31735242E-02 | 0.79198308E+03 |     17.0
 BASOPT|       21     |       1     | 0.18068519E-02 | 0.62121640E+03 |     11.3
 BASOPT|       22     |       1     | 0.18632972E-02 | 0.54983499E+03 |     12.9
 BASOPT|       23     |       1     | 0.72678724E-03 | 0.36245994E+03 |      8.7
 BASOPT|       24     |       1     | 0.34076428E-02 | 0.14202650E+03 |      5.1
 BASOPT|       25     |       1     | 0.93283111E-03 | 0.17124218E+03 |      3.5
 BASOPT|       26     |       1     | 0.31060968E-02 | 0.96551722E+03 |     16.7
 BASOPT|       27     |       1     | 0.17291677E-02 | 0.45738515E+03 |      8.4
 BASOPT|       28     |       1     | 0.20695216E-02 | 0.48006545E+03 |      6.6
 BASOPT|       29     |       1     | 0.15707969E-02 | 0.39985507E+03 |      4.5
 BASOPT|       30     |       1     | 0.62067455E-03 | 0.23279202E+03 |      2.7
 BASOPT|       31     |       1     | 0.14579004E-02 | 0.84249262E+03 |      6.8
 BASOPT|       32     |       1     | 0.10102676E-02 | 0.19833775E+03 |      3.3
 BASOPT|       33     |       1     | 0.29607919E-02 | 0.44188939E+03 |      7.0
 BASOPT|       34     |       1     | 0.30368976E-02 | 0.13631729E+04 |      8.3
 BASOPT|       35     |       1     | 0.35465551E-02 | 0.23466292E+04 |     11.9
 BASOPT|       36     |       1     | 0.21595359E-02 | 0.80714633E+03 |      5.7
 BASOPT|       37     |       1     | 0.20517786E-02 | 0.11793629E+04 |      7.4
 BASOPT|       38     |       1     | 0.29767606E-02 | 0.11116190E+04 |     11.8
 BASOPT|       39     |       1     | 0.21172198E-02 | 0.97727161E+03 |      4.1
 BASOPT|       40     |       1     | 0.27426401E-02 | 0.94502588E+03 |     10.9
 BASOPT|       41     |       1     | 0.28000235E-02 | 0.12477692E+04 |      8.2
 BASOPT|       42     |       1     | 0.20224935E-02 | 0.69432366E+03 |      5.9
 BASOPT|       43     |       1     | 0.25664740E-02 | 0.76265114E+03 |     11.1
 BASOPT|       44     |       1     | 0.18024707E-02 | 0.34007019E+03 |      5.4
 BASOPT| -----------------------------------------------------------------------
 BASOPT| Total residuum value: -.37254601E+04

 BASOPT| Information at iteration number:     700
 BASOPT| Training set | Combination | Rho difference | Condition num. | Time
 BASOPT| -----------------------------------------------------------------------
 BASOPT|        1     |       1     | 0.11786130E-02 | 0.17856620E+04 |     26.4
 BASOPT|        2     |       1     | 0.30363563E-02 | 0.92234782E+03 |     25.0
 BASOPT|        3     |       1     | 0.37066106E-02 | 0.20432944E+04 |     77.0
 BASOPT|        4     |       1     | 0.21193270E-02 | 0.91130257E+03 |     43.8
 BASOPT|        5     |       1     | 0.21952447E-02 | 0.37012142E+03 |     12.6
 BASOPT|        6     |       1     | 0.20285948E-02 | 0.84787475E+03 |     20.4
 BASOPT|        7     |       1     | 0.25691241E-02 | 0.93195325E+03 |     23.0
 BASOPT|        8     |       1     | 0.67875565E-03 | 0.34376648E+03 |      8.3
 BASOPT|        9     |       1     | 0.15950502E-02 | 0.45386956E+03 |     11.5
 BASOPT|       10     |       1     | 0.14274808E-02 | 0.11951653E+04 |     16.7
 BASOPT|       11     |       1     | 0.13357268E-02 | 0.65157419E+03 |     23.3
 BASOPT|       12     |       1     | 0.40103980E-02 | 0.24157666E+04 |     57.8
 BASOPT|       13     |       1     | 0.32362952E-02 | 0.10770102E+04 |     36.4
 BASOPT|       14     |       1     | 0.36394529E-02 | 0.28085634E+04 |     68.4
 BASOPT|       15     |       1     | 0.42135248E-02 | 0.35385258E+04 |     57.1
 BASOPT|       16     |       1     | 0.32852858E-02 | 0.32740439E+04 |     31.1
 BASOPT|       17     |       1     | 0.31048224E-02 | 0.47399247E+03 |     15.7
 BASOPT|       18     |       1     | 0.19515696E-02 | 0.53503191E+03 |     13.6
 BASOPT|       19     |       1     | 0.24083780E-02 | 0.62215319E+03 |     14.3
 BASOPT|       20     |       1     | 0.31370667E-02 | 0.78258055E+03 |     19.8
 BASOPT|       21     |       1     | 0.17804710E-02 | 0.62453044E+03 |     13.2
 BASOPT|       22     |       1     | 0.18693248E-02 | 0.54610049E+03 |     15.1
 BASOPT|       23     |       1     | 0.72602981E-03 | 0.35835243E+03 |     10.1
 BASOPT|       24     |       1     | 0.34182227E-02 | 0.14178996E+03 |      5.9
 BASOPT|       25     |       1     | 0.88162545E-03 | 0.17454814E+03 |      4.1
 BASOPT|       26     |       1     | 0.30977342E-02 | 0.94069668E+03 |     19.4
 BASOPT|       27     |       1     | 0.17414216E-02 | 0.45014035E+03 |      9.8
 BASOPT|       28     |       1     | 0.20563071E-02 | 0.47722090E+03 |      7.7
 BASOPT|       29     |       1     | 0.15800819E-02 | 0.39905211E+03 |      5.2
 BASOPT|       30     |       1     | 0.62593297E-03 | 0.23210479E+03 |      3.2
 BASOPT|       31     |       1     | 0.14477905E-02 | 0.84480172E+03 |      7.9
 BASOPT|       32     |       1     | 0.10075627E-02 | 0.20005972E+03 |      3.8
 BASOPT|       33     |       1     | 0.29440197E-02 | 0.44903917E+03 |      8.2
 BASOPT|       34     |       1     | 0.30425974E-02 | 0.13301308E+04 |      9.7
 BASOPT|       35     |       1     | 0.35444895E-02 | 0.22854861E+04 |     13.9
 BASOPT|       36     |       1     | 0.21554558E-02 | 0.80765715E+03 |      6.6
 BASOPT|       37     |       1     | 0.20475829E-02 | 0.12282645E+04 |      8.7
 BASOPT|       38     |       1     | 0.29265938E-02 | 0.11620986E+04 |     13.7
 BASOPT|       39     |       1     | 0.21408010E-02 | 0.10179436E+04 |      4.8
 BASOPT|       40     |       1     | 0.28108408E-02 | 0.97679635E+03 |     12.7
 BASOPT|       41     |       1     | 0.26878908E-02 | 0.13133845E+04 |      9.6
 BASOPT|       42     |       1     | 0.19848402E-02 | 0.72494674E+03 |      6.8
 BASOPT|       43     |       1     | 0.26114804E-02 | 0.78569938E+03 |     13.0
 BASOPT|       44     |       1     | 0.17309828E-02 | 0.34182024E+03 |      6.3
 BASOPT| -----------------------------------------------------------------------
 BASOPT| Total residuum value: -.37255034E+04

 BASOPT| Information at iteration number:     800
 BASOPT| Training set | Combination | Rho difference | Condition num. | Time
 BASOPT| -----------------------------------------------------------------------
 BASOPT|        1     |       1     | 0.11615142E-02 | 0.17627365E+04 |     30.2
 BASOPT|        2     |       1     | 0.30207424E-02 | 0.97291981E+03 |     28.6
 BASOPT|        3     |       1     | 0.35566535E-02 | 0.21001711E+04 |     87.9
 BASOPT|        4     |       1     | 0.21568506E-02 | 0.88648188E+03 |     50.0
 BASOPT|        5     |       1     | 0.21730231E-02 | 0.34838468E+03 |     14.4
 BASOPT|        6     |       1     | 0.20095345E-02 | 0.82379894E+03 |     23.2
 BASOPT|        7     |       1     | 0.24006513E-02 | 0.91257940E+03 |     26.3
 BASOPT|        8     |       1     | 0.65464382E-03 | 0.34560173E+03 |      9.5
 BASOPT|        9     |       1     | 0.15841460E-02 | 0.45607521E+03 |     13.1
 BASOPT|       10     |       1     | 0.14311758E-02 | 0.11842081E+04 |     19.1
 BASOPT|       11     |       1     | 0.13442242E-02 | 0.65161770E+03 |     26.6
 BASOPT|       12     |       1     | 0.40550785E-02 | 0.23522142E+04 |     66.0
 BASOPT|       13     |       1     | 0.32436018E-02 | 0.10775744E+04 |     41.6
 BASOPT|       14     |       1     | 0.36760926E-02 | 0.27471684E+04 |     78.1
 BASOPT|       15     |       1     | 0.42313461E-02 | 0.34929599E+04 |     65.2
 BASOPT|       16     |       1     | 0.32931193E-02 | 0.32331981E+04 |     35.5
 BASOPT|       17     |       1     | 0.30998643E-02 | 0.46681661E+03 |     17.9
 BASOPT|       18     |       1     | 0.19671021E-02 | 0.53421488E+03 |     15.5
 BASOPT|       19     |       1     | 0.24220632E-02 | 0.62057464E+03 |     16.3
 BASOPT|       20     |       1     | 0.31918314E-02 | 0.78434068E+03 |     22.6
 BASOPT|       21     |       1     | 0.18206578E-02 | 0.61638768E+03 |     15.0
 BASOPT|       22     |       1     | 0.18967203E-02 | 0.54072593E+03 |     17.2
 BASOPT|       23     |       1     | 0.73046270E-03 | 0.35994497E+03 |     11.5
 BASOPT|       24     |       1     | 0.34351748E-02 | 0.14268961E+03 |      6.7
 BASOPT|       25     |       1     | 0.88653213E-03 | 0.17307739E+03 |      4.7
 BASOPT|       26     |       1     | 0.30976110E-02 | 0.92239439E+03 |     22.2
 BASOPT|       27     |       1     | 0.17700283E-02 | 0.44699141E+03 |     11.2
 BASOPT|       28     |       1     | 0.20657236E-02 | 0.47494337E+03 |      8.8
 BASOPT|       29     |       1     | 0.16193994E-02 | 0.39385520E+03 |      6.0
 BASOPT|       30     |       1     | 0.64391847E-03 | 0.23145413E+03 |      3.6
 BASOPT|       31     |       1     | 0.14646061E-02 | 0.83495142E+03 |      9.0
 BASOPT|       32     |       1     | 0.10192167E-02 | 0.19815131E+03 |      4.4
 BASOPT|       33     |       1     | 0.29515118E-02 | 0.44123105E+03 |      9.3
 BASOPT|       34     |       1     | 0.30745730E-02 | 0.13313965E+04 |     11.1
 BASOPT|       35     |       1     | 0.35332941E-02 | 0.23017950E+04 |     15.9
 BASOPT|       36     |       1     | 0.21724806E-02 | 0.80059210E+03 |      7.5
 BASOPT|       37     |       1     | 0.20547803E-02 | 0.11934553E+04 |      9.9
 BASOPT|       38     |       1     | 0.29921607E-02 | 0.11236478E+04 |     15.7
 BASOPT|       39     |       1     | 0.21437597E-02 | 0.99022756E+03 |      5.5
 BASOPT|       40     |       1     | 0.26642442E-02 | 0.95495868E+03 |     14.6
 BASOPT|       41     |       1     | 0.26882982E-02 | 0.12672876E+04 |     11.0
 BASOPT|       42     |       1     | 0.20431339E-02 | 0.69818055E+03 |      7.8
 BASOPT|       43     |       1     | 0.26070013E-02 | 0.76531897E+03 |     14.8
 BASOPT|       44     |       1     | 0.17151960E-02 | 0.34043943E+03 |      7.2
 BASOPT| -----------------------------------------------------------------------
 BASOPT| Total residuum value: -.37254931E+04

 BASOPT| Information at iteration number:     900
 BASOPT| Training set | Combination | Rho difference | Condition num. | Time
 BASOPT| -----------------------------------------------------------------------
 BASOPT|        1     |       1     | 0.11794571E-02 | 0.17992238E+04 |     33.9
 BASOPT|        2     |       1     | 0.30058488E-02 | 0.93236609E+03 |     32.1
 BASOPT|        3     |       1     | 0.36502096E-02 | 0.20507078E+04 |     98.9
 BASOPT|        4     |       1     | 0.21619413E-02 | 0.91049140E+03 |     56.2
 BASOPT|        5     |       1     | 0.21720354E-02 | 0.36331029E+03 |     16.2
 BASOPT|        6     |       1     | 0.20338552E-02 | 0.83204987E+03 |     26.1
 BASOPT|        7     |       1     | 0.25247387E-02 | 0.90401937E+03 |     29.6
 BASOPT|        8     |       1     | 0.67648359E-03 | 0.34483884E+03 |     10.7
 BASOPT|        9     |       1     | 0.15964790E-02 | 0.45447939E+03 |     14.7
 BASOPT|       10     |       1     | 0.14438999E-02 | 0.11971000E+04 |     21.4
 BASOPT|       11     |       1     | 0.13642027E-02 | 0.65008991E+03 |     30.0
 BASOPT|       12     |       1     | 0.40550939E-02 | 0.23940571E+04 |     74.1
 BASOPT|       13     |       1     | 0.32521191E-02 | 0.10808910E+04 |     46.7
 BASOPT|       14     |       1     | 0.36843291E-02 | 0.28014821E+04 |     87.8
 BASOPT|       15     |       1     | 0.42485461E-02 | 0.35818205E+04 |     73.2
 BASOPT|       16     |       1     | 0.33104990E-02 | 0.33122819E+04 |     39.8
 BASOPT|       17     |       1     | 0.31037794E-02 | 0.46978923E+03 |     20.1
 BASOPT|       18     |       1     | 0.19586284E-02 | 0.53290509E+03 |     17.4
 BASOPT|       19     |       1     | 0.24242844E-02 | 0.61987247E+03 |     18.3
 BASOPT|       20     |       1     | 0.31915256E-02 | 0.78463835E+03 |     25.4
 BASOPT|       21     |       1     | 0.18176081E-02 | 0.61505977E+03 |     16.9
 BASOPT|       22     |       1     | 0.19054300E-02 | 0.53927941E+03 |     19.3
 BASOPT|       23     |       1     | 0.74369214E-03 | 0.35764991E+03 |     13.0
 BASOPT|       24     |       1     | 0.34597017E-02 | 0.14285779E+03 |      7.6
 BASOPT|       25     |       1     | 0.88370400E-03 | 0.17393154E+03 |      5.3
 BASOPT|       26     |       1     | 0.31013245E-02 | 0.92208330E+03 |     24.9
 BASOPT|       27     |       1     | 0.17723933E-02 | 0.44526068E+03 |     12.5
 BASOPT|       28     |       1     | 0.20714762E-02 | 0.47401429E+03 |      9.9
 BASOPT|       29     |       1     | 0.16277504E-02 | 0.39351017E+03 |      6.7
 BASOPT|       30     |       1     | 0.66536357E-03 | 0.23009470E+03 |      4.1
 BASOPT|       31     |       1     | 0.14668225E-02 | 0.83596742E+03 |     10.1
 BASOPT|       32     |       1     | 0.10165729E-02 | 0.19905573E+03 |      4.9
 BASOPT|       33     |       1     | 0.29641230E-02 | 0.44029136E+03 |     10.5
 BASOPT|       34     |       1     | 0.30725474E-02 | 0.13250833E+04 |     12.5
 BASOPT|       35     |       1     | 0.35273763E-02 | 0.22964724E+04 |     17.9
 BASOPT|       36     |       1     | 0.21715638E-02 | 0.79580215E+03 |      8.5
 BASOPT|       37     |       1     | 0.20544604E-02 | 0.11856692E+04 |     11.1
 BASOPT|       38     |       1     | 0.29843342E-02 | 0.11184723E+04 |     17.6
 BASOPT|       39     |       1     | 0.21445224E-02 | 0.98261696E+03 |      6.2
 BASOPT|       40     |       1     | 0.26803799E-02 | 0.94941210E+03 |     16.4
 BASOPT|       41     |       1     | 0.26859863E-02 | 0.12687603E+04 |     12.3
 BASOPT|       42     |       1     | 0.20405442E-02 | 0.69743618E+03 |      8.8
 BASOPT|       43     |       1     | 0.26004102E-02 | 0.76920143E+03 |     16.6
 BASOPT|       44     |       1     | 0.17146128E-02 | 0.34094665E+03 |      8.1
 BASOPT| -----------------------------------------------------------------------
 BASOPT| Total residuum value: -.37255178E+04

 BASOPT| Information at iteration number:    1000
 BASOPT| Training set | Combination | Rho difference | Condition num. | Time
 BASOPT| -----------------------------------------------------------------------
 BASOPT|        1     |       1     | 0.11765129E-02 | 0.17890405E+04 |     37.7
 BASOPT|        2     |       1     | 0.30120999E-02 | 0.92726963E+03 |     35.7
 BASOPT|        3     |       1     | 0.36482831E-02 | 0.20415332E+04 |    109.8
 BASOPT|        4     |       1     | 0.21581056E-02 | 0.90392890E+03 |     62.5
 BASOPT|        5     |       1     | 0.21726856E-02 | 0.36311211E+03 |     18.0
 BASOPT|        6     |       1     | 0.20346104E-02 | 0.83042070E+03 |     29.0
 BASOPT|        7     |       1     | 0.25222146E-02 | 0.90704589E+03 |     32.8
 BASOPT|        8     |       1     | 0.67463738E-03 | 0.34352973E+03 |     11.9
 BASOPT|        9     |       1     | 0.15863925E-02 | 0.45160649E+03 |     16.3
 BASOPT|       10     |       1     | 0.14327793E-02 | 0.12019479E+04 |     23.8
 BASOPT|       11     |       1     | 0.13539690E-02 | 0.64959842E+03 |     33.3
 BASOPT|       12     |       1     | 0.40532714E-02 | 0.23868054E+04 |     82.3
 BASOPT|       13     |       1     | 0.32388389E-02 | 0.10773523E+04 |     51.8
 BASOPT|       14     |       1     | 0.36784891E-02 | 0.27954272E+04 |     97.4
 BASOPT|       15     |       1     | 0.42404899E-02 | 0.35858685E+04 |     81.3
 BASOPT|       16     |       1     | 0.32984473E-02 | 0.33162697E+04 |     44.2
 BASOPT|       17     |       1     | 0.31061008E-02 | 0.46695219E+03 |     22.3
 BASOPT|       18     |       1     | 0.19591302E-02 | 0.53079061E+03 |     19.3
 BASOPT|       19     |       1     | 0.24206910E-02 | 0.61923738E+03 |     20.3
 BASOPT|       20     |       1     | 0.31920421E-02 | 0.78122305E+03 |     28.2
 BASOPT|       21     |       1     | 0.18167948E-02 | 0.61288125E+03 |     18.8
 BASOPT|       22     |       1     | 0.18974310E-02 | 0.54046758E+03 |     21.5
 BASOPT|       23     |       1     | 0.73511461E-03 | 0.35594345E+03 |     14.4
 BASOPT|       24     |       1     | 0.34490801E-02 | 0.14275774E+03 |      8.4
 BASOPT|       25     |       1     | 0.88457866E-03 | 0.17385673E+03 |      5.9
 BASOPT|       26     |       1     | 0.31044400E-02 | 0.92071397E+03 |     27.7
 BASOPT|       27     |       1     | 0.17691781E-02 | 0.44418178E+03 |     13.9
 BASOPT|       28     |       1     | 0.20669712E-02 | 0.47553926E+03 |     11.0
 BASOPT|       29     |       1     | 0.16194008E-02 | 0.39535342E+03 |      7.5
 BASOPT|       30     |       1     | 0.65791946E-03 | 0.23011457E+03 |      4.5
 BASOPT|       31     |       1     | 0.14690870E-02 | 0.83292327E+03 |     11.2
 BASOPT|       32     |       1     | 0.10196791E-02 | 0.19921991E+03 |      5.5
 BASOPT|       33     |       1     | 0.29608484E-02 | 0.44111261E+03 |     11.6
 BASOPT|       34     |       1     | 0.30669519E-02 | 0.13314451E+04 |     13.9
 BASOPT|       35     |       1     | 0.35289954E-02 | 0.23043278E+04 |     19.8
 BASOPT|       36     |       1     | 0.21681079E-02 | 0.79946067E+03 |      9.4
 BASOPT|       37     |       1     | 0.20545335E-02 | 0.11896645E+04 |     12.4
 BASOPT|       38     |       1     | 0.29871421E-02 | 0.11225618E+04 |     19.6
 BASOPT|       39     |       1     | 0.21410115E-02 | 0.98619038E+03 |      6.9
 BASOPT|       40     |       1     | 0.26830465E-02 | 0.95169847E+03 |     18.2
 BASOPT|       41     |       1     | 0.26873579E-02 | 0.12713049E+04 |     13.7
 BASOPT|       42     |       1     | 0.20422195E-02 | 0.70069143E+03 |      9.8
 BASOPT|       43     |       1     | 0.26072723E-02 | 0.77032258E+03 |     18.5
 BASOPT|       44     |       1     | 0.17180782E-02 | 0.34131174E+03 |      9.0
 BASOPT| -----------------------------------------------------------------------
 BASOPT| Total residuum value: -.37255021E+04

 BASOPT| Information at iteration number:    1100
 BASOPT| Training set | Combination | Rho difference | Condition num. | Time
 BASOPT| -----------------------------------------------------------------------
 BASOPT|        1     |       1     | 0.11822167E-02 | 0.18009044E+04 |     41.4
 BASOPT|        2     |       1     | 0.30079906E-02 | 0.92884495E+03 |     39.3
 BASOPT|        3     |       1     | 0.36549781E-02 | 0.20465198E+04 |    120.7
 BASOPT|        4     |       1     | 0.21627272E-02 | 0.91177267E+03 |     68.7
 BASOPT|        5     |       1     | 0.21711715E-02 | 0.36421668E+03 |     19.8
 BASOPT|        6     |       1     | 0.20375612E-02 | 0.83085444E+03 |     31.9
 BASOPT|        7     |       1     | 0.25313528E-02 | 0.90257407E+03 |     36.1
 BASOPT|        8     |       1     | 0.67846205E-03 | 0.34439142E+03 |     13.1
 BASOPT|        9     |       1     | 0.15872369E-02 | 0.45316337E+03 |     17.9
 BASOPT|       10     |       1     | 0.14382698E-02 | 0.11992813E+04 |     26.1
 BASOPT|       11     |       1     | 0.13628550E-02 | 0.64957940E+03 |     36.6
 BASOPT|       12     |       1     | 0.40580207E-02 | 0.23832591E+04 |     90.5
 BASOPT|       13     |       1     | 0.32457852E-02 | 0.10795556E+04 |     57.0
 BASOPT|       14     |       1     | 0.36848191E-02 | 0.27909258E+04 |    107.1
 BASOPT|       15     |       1     | 0.42465447E-02 | 0.35774374E+04 |     89.3
 BASOPT|       16     |       1     | 0.33064456E-02 | 0.33088557E+04 |     48.6
 BASOPT|       17     |       1     | 0.31043186E-02 | 0.46763043E+03 |     24.5
 BASOPT|       18     |       1     | 0.19580306E-02 | 0.53170849E+03 |     21.3
 BASOPT|       19     |       1     | 0.24226720E-02 | 0.61959993E+03 |     22.4
 BASOPT|       20     |       1     | 0.31953502E-02 | 0.78312596E+03 |     31.0
 BASOPT|       21     |       1     | 0.18188332E-02 | 0.61307901E+03 |     20.7
 BASOPT|       22     |       1     | 0.19017972E-02 | 0.53926700E+03 |     23.6
 BASOPT|       23     |       1     | 0.74136621E-03 | 0.35666255E+03 |     15.8
 BASOPT|       24     |       1     | 0.34507010E-02 | 0.14280883E+03 |      9.2
 BASOPT|       25     |       1     | 0.88364999E-03 | 0.17397757E+03 |      6.5
 BASOPT|       26     |       1     | 0.31018374E-02 | 0.91862311E+03 |     30.4
 BASOPT|       27     |       1     | 0.17706605E-02 | 0.44402631E+03 |     15.3
 BASOPT|       28     |       1     | 0.20673192E-02 | 0.47450937E+03 |     12.1
 BASOPT|       29     |       1     | 0.16220680E-02 | 0.39391236E+03 |      8.2
 BASOPT|       30     |       1     | 0.66736172E-03 | 0.22986638E+03 |      5.0
 BASOPT|       31     |       1     | 0.14682237E-02 | 0.83377794E+03 |     12.3
 BASOPT|       32     |       1     | 0.10169076E-02 | 0.19903149E+03 |      6.0
 BASOPT|       33     |       1     | 0.29586127E-02 | 0.43993822E+03 |     12.8
 BASOPT|       34     |       1     | 0.30677944E-02 | 0.13289779E+04 |     15.3
 BASOPT|       35     |       1     | 0.35255263E-02 | 0.22983385E+04 |     21.8
 BASOPT|       36     |       1     | 0.21696849E-02 | 0.79763113E+03 |     10.4
 BASOPT|       37     |       1     | 0.20551529E-02 | 0.11863821E+04 |     13.6
 BASOPT|       38     |       1     | 0.29891283E-02 | 0.11181992E+04 |     21.5
 BASOPT|       39     |       1     | 0.21434164E-02 | 0.98386631E+03 |      7.6
 BASOPT|       40     |       1     | 0.26787462E-02 | 0.95017254E+03 |     20.0
 BASOPT|       41     |       1     | 0.26849481E-02 | 0.12698810E+04 |     15.1
 BASOPT|       42     |       1     | 0.20443790E-02 | 0.69671294E+03 |     10.7
 BASOPT|       43     |       1     | 0.26007365E-02 | 0.76912923E+03 |     20.3
 BASOPT|       44     |       1     | 0.17159357E-02 | 0.34127321E+03 |     10.0
 BASOPT| -----------------------------------------------------------------------
 BASOPT| Total residuum value: -.37255049E+04

 BASOPT| Information at iteration number:    1200
 BASOPT| Training set | Combination | Rho difference | Condition num. | Time
 BASOPT| -----------------------------------------------------------------------
 BASOPT|        1     |       1     | 0.11792138E-02 | 0.17988491E+04 |     45.2
 BASOPT|        2     |       1     | 0.30068185E-02 | 0.92998755E+03 |     42.8
 BASOPT|        3     |       1     | 0.36528061E-02 | 0.20471247E+04 |    131.6
 BASOPT|        4     |       1     | 0.21665072E-02 | 0.90915832E+03 |     74.9
 BASOPT|        5     |       1     | 0.21711816E-02 | 0.36271840E+03 |     21.6
 BASOPT|        6     |       1     | 0.20352045E-02 | 0.82913417E+03 |     34.8
 BASOPT|        7     |       1     | 0.25262819E-02 | 0.90194972E+03 |     39.4
 BASOPT|        8     |       1     | 0.67734549E-03 | 0.34427130E+03 |     14.3
 BASOPT|        9     |       1     | 0.15953897E-02 | 0.45354815E+03 |     19.5
 BASOPT|       10     |       1     | 0.14486979E-02 | 0.11951201E+04 |     28.5
 BASOPT|       11     |       1     | 0.13736515E-02 | 0.64856813E+03 |     39.9
 BASOPT|       12     |       1     | 0.40642655E-02 | 0.23820703E+04 |     98.6
 BASOPT|       13     |       1     | 0.32593331E-02 | 0.10791570E+04 |     62.1
 BASOPT|       14     |       1     | 0.36952064E-02 | 0.27893286E+04 |    116.7
 BASOPT|       15     |       1     | 0.42590032E-02 | 0.35722769E+04 |     97.4
 BASOPT|       16     |       1     | 0.33211821E-02 | 0.33039658E+04 |     53.0
 BASOPT|       17     |       1     | 0.31035983E-02 | 0.46872176E+03 |     26.8
 BASOPT|       18     |       1     | 0.19599952E-02 | 0.53182914E+03 |     23.2
 BASOPT|       19     |       1     | 0.24259608E-02 | 0.61885131E+03 |     24.4
 BASOPT|       20     |       1     | 0.32007493E-02 | 0.78317116E+03 |     33.7
 BASOPT|       21     |       1     | 0.18226110E-02 | 0.61369530E+03 |     22.5
 BASOPT|       22     |       1     | 0.19093928E-02 | 0.53829348E+03 |     25.7
 BASOPT|       23     |       1     | 0.74901906E-03 | 0.35671511E+03 |     17.2
 BASOPT|       24     |       1     | 0.34560848E-02 | 0.14286447E+03 |     10.1
 BASOPT|       25     |       1     | 0.88398804E-03 | 0.17398684E+03 |      7.1
 BASOPT|       26     |       1     | 0.31015870E-02 | 0.91870447E+03 |     33.2
 BASOPT|       27     |       1     | 0.17747854E-02 | 0.44409642E+03 |     16.7
 BASOPT|       28     |       1     | 0.20702182E-02 | 0.47370749E+03 |     13.2
 BASOPT|       29     |       1     | 0.16290725E-02 | 0.39300009E+03 |      8.9
 BASOPT|       30     |       1     | 0.67528727E-03 | 0.22935911E+03 |      5.4
 BASOPT|       31     |       1     | 0.14683145E-02 | 0.83497059E+03 |     13.4
 BASOPT|       32     |       1     | 0.10184164E-02 | 0.19886259E+03 |      6.5
 BASOPT|       33     |       1     | 0.29628610E-02 | 0.43945364E+03 |     13.9
 BASOPT|       34     |       1     | 0.30715830E-02 | 0.13266327E+04 |     16.6
 BASOPT|       35     |       1     | 0.35243653E-02 | 0.22964051E+04 |     23.8
 BASOPT|       36     |       1     | 0.21711385E-02 | 0.79728846E+03 |     11.3
 BASOPT|       37     |       1     | 0.20559601E-02 | 0.11882281E+04 |     14.8
 BASOPT|       38     |       1     | 0.29943498E-02 | 0.11189439E+04 |     23.5
 BASOPT|       39     |       1     | 0.21421966E-02 | 0.98599471E+03 |      8.2
 BASOPT|       40     |       1     | 0.26767198E-02 | 0.95147617E+03 |     21.8
 BASOPT|       41     |       1     | 0.26846784E-02 | 0.12719787E+04 |     16.4
 BASOPT|       42     |       1     | 0.20494859E-02 | 0.69580246E+03 |     11.7
 BASOPT|       43     |       1     | 0.26013279E-02 | 0.76828043E+03 |     22.2
 BASOPT|       44     |       1     | 0.17138616E-02 | 0.34099585E+03 |     10.9
 BASOPT| -----------------------------------------------------------------------
 BASOPT| Total residuum value: -.37255105E+04

 BASOPT| Information at iteration number:    1300
 BASOPT| Training set | Combination | Rho difference | Condition num. | Time
 BASOPT| -----------------------------------------------------------------------
 BASOPT|        1     |       1     | 0.11790091E-02 | 0.17982959E+04 |     49.0
 BASOPT|        2     |       1     | 0.30070938E-02 | 0.92990162E+03 |     46.4
 BASOPT|        3     |       1     | 0.36525121E-02 | 0.20468315E+04 |    142.5
 BASOPT|        4     |       1     | 0.21666128E-02 | 0.90860676E+03 |     81.2
 BASOPT|        5     |       1     | 0.21713632E-02 | 0.36261950E+03 |     23.4
 BASOPT|        6     |       1     | 0.20350152E-02 | 0.82924185E+03 |     37.6
 BASOPT|        7     |       1     | 0.25259852E-02 | 0.90263031E+03 |     42.7
 BASOPT|        8     |       1     | 0.67717258E-03 | 0.34423236E+03 |     15.5
 BASOPT|        9     |       1     | 0.15958551E-02 | 0.45353405E+03 |     21.2
 BASOPT|       10     |       1     | 0.14492448E-02 | 0.11952981E+04 |     30.9
 BASOPT|       11     |       1     | 0.13740010E-02 | 0.64862191E+03 |     43.2
 BASOPT|       12     |       1     | 0.40635804E-02 | 0.23830821E+04 |    106.8
 BASOPT|       13     |       1     | 0.32596204E-02 | 0.10791415E+04 |     67.3
 BASOPT|       14     |       1     | 0.36950095E-02 | 0.27901638E+04 |    126.4
 BASOPT|       15     |       1     | 0.42592659E-02 | 0.35723407E+04 |    105.4
 BASOPT|       16     |       1     | 0.33218326E-02 | 0.33040197E+04 |     57.4
 BASOPT|       17     |       1     | 0.31037614E-02 | 0.46878511E+03 |     29.0
 BASOPT|       18     |       1     | 0.19601128E-02 | 0.53186553E+03 |     25.1
 BASOPT|       19     |       1     | 0.24258171E-02 | 0.61890393E+03 |     26.4
 BASOPT|       20     |       1     | 0.31997430E-02 | 0.78316874E+03 |     36.5
 BASOPT|       21     |       1     | 0.18221122E-02 | 0.61385382E+03 |     24.4
 BASOPT|       22     |       1     | 0.19093378E-02 | 0.53846275E+03 |     27.9
 BASOPT|       23     |       1     | 0.74928354E-03 | 0.35672793E+03 |     18.7
 BASOPT|       24     |       1     | 0.34553641E-02 | 0.14287023E+03 |     10.9
 BASOPT|       25     |       1     | 0.88392502E-03 | 0.17398773E+03 |      7.7
 BASOPT|       26     |       1     | 0.31013381E-02 | 0.91914558E+03 |     36.0
 BASOPT|       27     |       1     | 0.17748300E-02 | 0.44420495E+03 |     18.1
 BASOPT|       28     |       1     | 0.20699647E-02 | 0.47383086E+03 |     14.3
 BASOPT|       29     |       1     | 0.16288055E-02 | 0.39315808E+03 |      9.7
 BASOPT|       30     |       1     | 0.67534381E-03 | 0.22939320E+03 |      5.9
 BASOPT|       31     |       1     | 0.14681529E-02 | 0.83510987E+03 |     14.6
 BASOPT|       32     |       1     | 0.10183692E-02 | 0.19889459E+03 |      7.1
 BASOPT|       33     |       1     | 0.29625616E-02 | 0.43965985E+03 |     15.1
 BASOPT|       34     |       1     | 0.30715611E-02 | 0.13266601E+04 |     18.0
 BASOPT|       35     |       1     | 0.35246134E-02 | 0.22971148E+04 |     25.8
 BASOPT|       36     |       1     | 0.21708808E-02 | 0.79741863E+03 |     12.3
 BASOPT|       37     |       1     | 0.20554685E-02 | 0.11887135E+04 |     16.1
 BASOPT|       38     |       1     | 0.29929233E-02 | 0.11196083E+04 |     25.5
 BASOPT|       39     |       1     | 0.21419616E-02 | 0.98631021E+03 |      8.9
 BASOPT|       40     |       1     | 0.26779148E-02 | 0.95172665E+03 |     23.6
 BASOPT|       41     |       1     | 0.26848270E-02 | 0.12723716E+04 |     17.8
 BASOPT|       42     |       1     | 0.20484741E-02 | 0.69639312E+03 |     12.7
 BASOPT|       43     |       1     | 0.26013491E-02 | 0.76849981E+03 |     24.0
 BASOPT|       44     |       1     | 0.17139190E-02 | 0.34102064E+03 |     11.8
 BASOPT| -----------------------------------------------------------------------
 BASOPT| Total residuum value: -.37255058E+04

 BASOPT| Information at iteration number:    1400
 BASOPT| Training set | Combination | Rho difference | Condition num. | Time
 BASOPT| -----------------------------------------------------------------------
 BASOPT|        1     |       1     | 0.11791553E-02 | 0.17986226E+04 |     52.7
 BASOPT|        2     |       1     | 0.30070899E-02 | 0.92969740E+03 |     50.0
 BASOPT|        3     |       1     | 0.36528532E-02 | 0.20467540E+04 |    153.4
 BASOPT|        4     |       1     | 0.21664989E-02 | 0.90897002E+03 |     87.4
 BASOPT|        5     |       1     | 0.21711984E-02 | 0.36272992E+03 |     25.2
 BASOPT|        6     |       1     | 0.20353186E-02 | 0.82924381E+03 |     40.5
 BASOPT|        7     |       1     | 0.25264153E-02 | 0.90224326E+03 |     45.9
 BASOPT|        8     |       1     | 0.67730744E-03 | 0.34422232E+03 |     16.6
 BASOPT|        9     |       1     | 0.15950048E-02 | 0.45345783E+03 |     22.8
 BASOPT|       10     |       1     | 0.14482622E-02 | 0.11954380E+04 |     33.2
 BASOPT|       11     |       1     | 0.13731871E-02 | 0.64859962E+03 |     46.5
 BASOPT|       12     |       1     | 0.40638417E-02 | 0.23820576E+04 |    115.0
 BASOPT|       13     |       1     | 0.32586968E-02 | 0.10790882E+04 |     72.4
 BASOPT|       14     |       1     | 0.36947312E-02 | 0.27893596E+04 |    136.1
 BASOPT|       15     |       1     | 0.42584153E-02 | 0.35725756E+04 |    113.5
 BASOPT|       16     |       1     | 0.33206933E-02 | 0.33042558E+04 |     61.8
 BASOPT|       17     |       1     | 0.31038403E-02 | 0.46857597E+03 |     31.2
 BASOPT|       18     |       1     | 0.19600267E-02 | 0.53176952E+03 |     27.0
 BASOPT|       19     |       1     | 0.24254428E-02 | 0.61889444E+03 |     28.4
 BASOPT|       20     |       1     | 0.32002578E-02 | 0.78309057E+03 |     39.3
 BASOPT|       21     |       1     | 0.18222926E-02 | 0.61366231E+03 |     26.3
 BASOPT|       22     |       1     | 0.19086648E-02 | 0.53843100E+03 |     30.0
 BASOPT|       23     |       1     | 0.74865875E-03 | 0.35666975E+03 |     20.1
 BASOPT|       24     |       1     | 0.34549700E-02 | 0.14285075E+03 |     11.7
 BASOPT|       25     |       1     | 0.88403579E-03 | 0.17398406E+03 |      8.2
 BASOPT|       26     |       1     | 0.31013981E-02 | 0.91890187E+03 |     38.7
 BASOPT|       27     |       1     | 0.17744061E-02 | 0.44412130E+03 |     19.5
 BASOPT|       28     |       1     | 0.20696061E-02 | 0.47383273E+03 |     15.4
 BASOPT|       29     |       1     | 0.16281529E-02 | 0.39313846E+03 |     10.4
 BASOPT|       30     |       1     | 0.67494820E-03 | 0.22938461E+03 |      6.3
 BASOPT|       31     |       1     | 0.14683524E-02 | 0.83490971E+03 |     15.7
 BASOPT|       32     |       1     | 0.10184740E-02 | 0.19887598E+03 |      7.6
 BASOPT|       33     |       1     | 0.29624769E-02 | 0.43955653E+03 |     16.3
 BASOPT|       34     |       1     | 0.30712229E-02 | 0.13269913E+04 |     19.4
 BASOPT|       35     |       1     | 0.35246457E-02 | 0.22969915E+04 |     27.8
 BASOPT|       36     |       1     | 0.21708027E-02 | 0.79753399E+03 |     13.2
 BASOPT|       37     |       1     | 0.20557487E-02 | 0.11885527E+04 |     17.3
 BASOPT|       38     |       1     | 0.29937237E-02 | 0.11193306E+04 |     27.4
 BASOPT|       39     |       1     | 0.21420720E-02 | 0.98621730E+03 |      9.6
 BASOPT|       40     |       1     | 0.26772807E-02 | 0.95165316E+03 |     25.4
 BASOPT|       41     |       1     | 0.26848431E-02 | 0.12722322E+04 |     19.2
 BASOPT|       42     |       1     | 0.20490149E-02 | 0.69607903E+03 |     13.7
 BASOPT|       43     |       1     | 0.26014977E-02 | 0.76835600E+03 |     25.8
 BASOPT|       44     |       1     | 0.17141018E-02 | 0.34103445E+03 |     12.7
 BASOPT| -----------------------------------------------------------------------
 BASOPT| Total residuum value: -.37255045E+04

 BASOPT| Information at iteration number:    1500
 BASOPT| Training set | Combination | Rho difference | Condition num. | Time
 BASOPT| -----------------------------------------------------------------------
 BASOPT|        1     |       1     | 0.11794646E-02 | 0.17986875E+04 |     56.5
 BASOPT|        2     |       1     | 0.30069138E-02 | 0.92961119E+03 |     53.5
 BASOPT|        3     |       1     | 0.36531287E-02 | 0.20465871E+04 |    164.4
 BASOPT|        4     |       1     | 0.21665742E-02 | 0.90898779E+03 |     93.6
 BASOPT|        5     |       1     | 0.21712708E-02 | 0.36274678E+03 |     27.0
 BASOPT|        6     |       1     | 0.20352784E-02 | 0.82922665E+03 |     43.4
 BASOPT|        7     |       1     | 0.25268568E-02 | 0.90230470E+03 |     49.2
 BASOPT|        8     |       1     | 0.67750878E-03 | 0.34423042E+03 |     17.8
 BASOPT|        9     |       1     | 0.15953467E-02 | 0.45351230E+03 |     24.4
 BASOPT|       10     |       1     | 0.14488318E-02 | 0.11951444E+04 |     35.6
 BASOPT|       11     |       1     | 0.13737642E-02 | 0.64859592E+03 |     49.8
 BASOPT|       12     |       1     | 0.40639431E-02 | 0.23818877E+04 |    123.1
 BASOPT|       13     |       1     | 0.32593702E-02 | 0.10790615E+04 |     77.5
 BASOPT|       14     |       1     | 0.36951028E-02 | 0.27888636E+04 |    145.7
 BASOPT|       15     |       1     | 0.42590588E-02 | 0.35709753E+04 |    121.5
 BASOPT|       16     |       1     | 0.33214501E-02 | 0.33028246E+04 |     66.2
 BASOPT|       17     |       1     | 0.31037005E-02 | 0.46865777E+03 |     33.4
 BASOPT|       18     |       1     | 0.19601283E-02 | 0.53182878E+03 |     28.9
 BASOPT|       19     |       1     | 0.24257538E-02 | 0.61888042E+03 |     30.5
 BASOPT|       20     |       1     | 0.32002226E-02 | 0.78311777E+03 |     42.1
 BASOPT|       21     |       1     | 0.18223557E-02 | 0.61372618E+03 |     28.1
 BASOPT|       22     |       1     | 0.19091683E-02 | 0.53842299E+03 |     32.1
 BASOPT|       23     |       1     | 0.74906202E-03 | 0.35671580E+03 |     21.5
 BASOPT|       24     |       1     | 0.34553549E-02 | 0.14285549E+03 |     12.6
 BASOPT|       25     |       1     | 0.88398733E-03 | 0.17397935E+03 |      8.8
 BASOPT|       26     |       1     | 0.31014053E-02 | 0.91889443E+03 |     41.5
 BASOPT|       27     |       1     | 0.17747054E-02 | 0.44414994E+03 |     20.9
 BASOPT|       28     |       1     | 0.20698490E-02 | 0.47380353E+03 |     16.5
 BASOPT|       29     |       1     | 0.16286104E-02 | 0.39312247E+03 |     11.2
 BASOPT|       30     |       1     | 0.67529423E-03 | 0.22938877E+03 |      6.8
 BASOPT|       31     |       1     | 0.14682238E-02 | 0.83492890E+03 |     16.8
 BASOPT|       32     |       1     | 0.10184366E-02 | 0.19887777E+03 |      8.2
 BASOPT|       33     |       1     | 0.29625900E-02 | 0.43958779E+03 |     17.4
 BASOPT|       34     |       1     | 0.30715127E-02 | 0.13267558E+04 |     20.8
 BASOPT|       35     |       1     | 0.35246738E-02 | 0.22967983E+04 |     29.7
 BASOPT|       36     |       1     | 0.21709200E-02 | 0.79741076E+03 |     14.1
 BASOPT|       37     |       1     | 0.20556589E-02 | 0.11884631E+04 |     18.5
 BASOPT|       38     |       1     | 0.29935922E-02 | 0.11192910E+04 |     29.4
 BASOPT|       39     |       1     | 0.21420623E-02 | 0.98614396E+03 |     10.3
 BASOPT|       40     |       1     | 0.26770853E-02 | 0.95157257E+03 |     27.2
 BASOPT|       41     |       1     | 0.26847980E-02 | 0.12720152E+04 |     20.5
 BASOPT|       42     |       1     | 0.20489809E-02 | 0.69614106E+03 |     14.6
 BASOPT|       43     |       1     | 0.26013554E-02 | 0.76837416E+03 |     27.7
 BASOPT|       44     |       1     | 0.17139404E-02 | 0.34100802E+03 |     13.6
 BASOPT| -----------------------------------------------------------------------
 BASOPT| Total residuum value: -.37255111E+04

 BASOPT| Information at iteration number:    1600
 BASOPT| Training set | Combination | Rho difference | Condition num. | Time
 BASOPT| -----------------------------------------------------------------------
 BASOPT|        1     |       1     | 0.11791748E-02 | 0.17985717E+04 |     60.2
 BASOPT|        2     |       1     | 0.30070650E-02 | 0.92967210E+03 |     57.1
 BASOPT|        3     |       1     | 0.36528539E-02 | 0.20466024E+04 |    175.3
 BASOPT|        4     |       1     | 0.21668810E-02 | 0.90882029E+03 |     99.9
 BASOPT|        5     |       1     | 0.21710820E-02 | 0.36266491E+03 |     28.8
 BASOPT|        6     |       1     | 0.20352501E-02 | 0.82912831E+03 |     46.3
 BASOPT|        7     |       1     | 0.25264535E-02 | 0.90232718E+03 |     52.5
 BASOPT|        8     |       1     | 0.67731448E-03 | 0.34421919E+03 |     19.0
 BASOPT|        9     |       1     | 0.15956211E-02 | 0.45350581E+03 |     26.0
 BASOPT|       10     |       1     | 0.14490213E-02 | 0.11952432E+04 |     38.0
 BASOPT|       11     |       1     | 0.13739358E-02 | 0.64857681E+03 |     53.1
 BASOPT|       12     |       1     | 0.40638837E-02 | 0.23823629E+04 |    131.3
 BASOPT|       13     |       1     | 0.32596061E-02 | 0.10791062E+04 |     82.7
 BASOPT|       14     |       1     | 0.36951632E-02 | 0.27895264E+04 |    155.4
 BASOPT|       15     |       1     | 0.42592471E-02 | 0.35721054E+04 |    129.6
 BASOPT|       16     |       1     | 0.33216653E-02 | 0.33038237E+04 |     70.6
 BASOPT|       17     |       1     | 0.31036433E-02 | 0.46867262E+03 |     35.6
 BASOPT|       18     |       1     | 0.19601104E-02 | 0.53180938E+03 |     30.9
 BASOPT|       19     |       1     | 0.24257617E-02 | 0.61887327E+03 |     32.5
 BASOPT|       20     |       1     | 0.32002158E-02 | 0.78313102E+03 |     44.9
 BASOPT|       21     |       1     | 0.18223023E-02 | 0.61373407E+03 |     30.0
 BASOPT|       22     |       1     | 0.19092561E-02 | 0.53839330E+03 |     34.3
 BASOPT|       23     |       1     | 0.74919467E-03 | 0.35669572E+03 |     23.0
 BASOPT|       24     |       1     | 0.34555812E-02 | 0.14285864E+03 |     13.4
 BASOPT|       25     |       1     | 0.88404789E-03 | 0.17398536E+03 |      9.4
 BASOPT|       26     |       1     | 0.31014546E-02 | 0.91888417E+03 |     44.2
 BASOPT|       27     |       1     | 0.17747610E-02 | 0.44412984E+03 |     22.3
 BASOPT|       28     |       1     | 0.20698820E-02 | 0.47378838E+03 |     17.6
 BASOPT|       29     |       1     | 0.16287022E-02 | 0.39310197E+03 |     11.9
 BASOPT|       30     |       1     | 0.67552946E-03 | 0.22937070E+03 |      7.2
 BASOPT|       31     |       1     | 0.14682459E-02 | 0.83497418E+03 |     17.9
 BASOPT|       32     |       1     | 0.10185409E-02 | 0.19887923E+03 |      8.7
 BASOPT|       33     |       1     | 0.29627204E-02 | 0.43957366E+03 |     18.6
 BASOPT|       34     |       1     | 0.30715225E-02 | 0.13266738E+04 |     22.2
 BASOPT|       35     |       1     | 0.35246335E-02 | 0.22967773E+04 |     31.7
 BASOPT|       36     |       1     | 0.21708988E-02 | 0.79738370E+03 |     15.1
 BASOPT|       37     |       1     | 0.20556372E-02 | 0.11885006E+04 |     19.8
 BASOPT|       38     |       1     | 0.29934836E-02 | 0.11193271E+04 |     31.3
 BASOPT|       39     |       1     | 0.21419877E-02 | 0.98616600E+03 |     11.0
 BASOPT|       40     |       1     | 0.26775090E-02 | 0.95160611E+03 |     29.1
 BASOPT|       41     |       1     | 0.26847796E-02 | 0.12721849E+04 |     21.9
 BASOPT|       42     |       1     | 0.20489142E-02 | 0.69614217E+03 |     15.6
 BASOPT|       43     |       1     | 0.26015896E-02 | 0.76837470E+03 |     29.5
 BASOPT|       44     |       1     | 0.17139447E-02 | 0.34101419E+03 |     14.5
 BASOPT| -----------------------------------------------------------------------
 BASOPT| Total residuum value: -.37255037E+04

 BASOPT| Information at iteration number:    1700
 BASOPT| Training set | Combination | Rho difference | Condition num. | Time
 BASOPT| -----------------------------------------------------------------------
 BASOPT|        1     |       1     | 0.11791948E-02 | 0.17986013E+04 |     64.0
 BASOPT|        2     |       1     | 0.30070106E-02 | 0.92967553E+03 |     60.7
 BASOPT|        3     |       1     | 0.36528205E-02 | 0.20466061E+04 |    186.2
 BASOPT|        4     |       1     | 0.21668583E-02 | 0.90883174E+03 |    106.1
 BASOPT|        5     |       1     | 0.21710856E-02 | 0.36266738E+03 |     30.6
 BASOPT|        6     |       1     | 0.20352573E-02 | 0.82915333E+03 |     49.2
 BASOPT|        7     |       1     | 0.25264493E-02 | 0.90229991E+03 |     55.8
 BASOPT|        8     |       1     | 0.67732891E-03 | 0.34422175E+03 |     20.2
 BASOPT|        9     |       1     | 0.15956767E-02 | 0.45351573E+03 |     27.6
 BASOPT|       10     |       1     | 0.14490665E-02 | 0.11952159E+04 |     40.3
 BASOPT|       11     |       1     | 0.13739637E-02 | 0.64857676E+03 |     56.4
 BASOPT|       12     |       1     | 0.40639206E-02 | 0.23823807E+04 |    139.5
 BASOPT|       13     |       1     | 0.32596626E-02 | 0.10791144E+04 |     87.8
 BASOPT|       14     |       1     | 0.36952092E-02 | 0.27895424E+04 |    165.1
 BASOPT|       15     |       1     | 0.42592654E-02 | 0.35720972E+04 |    137.6
 BASOPT|       16     |       1     | 0.33217122E-02 | 0.33038133E+04 |     74.9
 BASOPT|       17     |       1     | 0.31036164E-02 | 0.46868676E+03 |     37.8
 BASOPT|       18     |       1     | 0.19601221E-02 | 0.53181664E+03 |     32.8
 BASOPT|       19     |       1     | 0.24257594E-02 | 0.61887622E+03 |     34.5
 BASOPT|       20     |       1     | 0.32002567E-02 | 0.78314011E+03 |     47.7
 BASOPT|       21     |       1     | 0.18223397E-02 | 0.61373983E+03 |     31.9
 BASOPT|       22     |       1     | 0.19092745E-02 | 0.53839653E+03 |     36.4
 BASOPT|       23     |       1     | 0.74922149E-03 | 0.35670207E+03 |     24.4
 BASOPT|       24     |       1     | 0.34556472E-02 | 0.14285832E+03 |     14.2
 BASOPT|       25     |       1     | 0.88405294E-03 | 0.17398521E+03 |     10.0
 BASOPT|       26     |       1     | 0.31014237E-02 | 0.91892797E+03 |     47.0
 BASOPT|       27     |       1     | 0.17747766E-02 | 0.44414236E+03 |     23.6
 BASOPT|       28     |       1     | 0.20698828E-02 | 0.47379095E+03 |     18.7
 BASOPT|       29     |       1     | 0.16287278E-02 | 0.39310160E+03 |     12.7
 BASOPT|       30     |       1     | 0.67554027E-03 | 0.22937012E+03 |      7.7
 BASOPT|       31     |       1     | 0.14682534E-02 | 0.83498407E+03 |     19.0
 BASOPT|       32     |       1     | 0.10185502E-02 | 0.19887809E+03 |      9.3
 BASOPT|       33     |       1     | 0.29627839E-02 | 0.43956519E+03 |     19.7
 BASOPT|       34     |       1     | 0.30715462E-02 | 0.13267095E+04 |     23.6
 BASOPT|       35     |       1     | 0.35246066E-02 | 0.22968392E+04 |     33.7
 BASOPT|       36     |       1     | 0.21709279E-02 | 0.79738464E+03 |     16.0
 BASOPT|       37     |       1     | 0.20556626E-02 | 0.11884678E+04 |     21.0
 BASOPT|       38     |       1     | 0.29935522E-02 | 0.11192906E+04 |     33.2
 BASOPT|       39     |       1     | 0.21420435E-02 | 0.98614146E+03 |     11.7
 BASOPT|       40     |       1     | 0.26773694E-02 | 0.95158885E+03 |     30.9
 BASOPT|       41     |       1     | 0.26847631E-02 | 0.12721421E+04 |     23.3
 BASOPT|       42     |       1     | 0.20489691E-02 | 0.69611790E+03 |     16.6
 BASOPT|       43     |       1     | 0.26015950E-02 | 0.76836508E+03 |     31.4
 BASOPT|       44     |       1     | 0.17139401E-02 | 0.34101517E+03 |     15.4
 BASOPT| -----------------------------------------------------------------------
 BASOPT| Total residuum value: -.37255061E+04

 BASOPT| Information at iteration number:    1800
 BASOPT| Training set | Combination | Rho difference | Condition num. | Time
 BASOPT| -----------------------------------------------------------------------
 BASOPT|        1     |       1     | 0.11792126E-02 | 0.17985648E+04 |     67.8
 BASOPT|        2     |       1     | 0.30070308E-02 | 0.92963462E+03 |     64.2
 BASOPT|        3     |       1     | 0.36528510E-02 | 0.20465396E+04 |    197.1
 BASOPT|        4     |       1     | 0.21668688E-02 | 0.90882370E+03 |    112.4
 BASOPT|        5     |       1     | 0.21711138E-02 | 0.36267533E+03 |     32.4
 BASOPT|        6     |       1     | 0.20352453E-02 | 0.82915115E+03 |     52.0
 BASOPT|        7     |       1     | 0.25264758E-02 | 0.90231564E+03 |     59.0
 BASOPT|        8     |       1     | 0.67732619E-03 | 0.34421581E+03 |     21.4
 BASOPT|        9     |       1     | 0.15956168E-02 | 0.45350852E+03 |     29.3
 BASOPT|       10     |       1     | 0.14489879E-02 | 0.11952343E+04 |     42.7
 BASOPT|       11     |       1     | 0.13738715E-02 | 0.64858109E+03 |     59.7
 BASOPT|       12     |       1     | 0.40638597E-02 | 0.23823988E+04 |    147.6
 BASOPT|       13     |       1     | 0.32595604E-02 | 0.10791039E+04 |     93.0
 BASOPT|       14     |       1     | 0.36951185E-02 | 0.27895545E+04 |    174.8
 BASOPT|       15     |       1     | 0.42591791E-02 | 0.35721022E+04 |    145.7
 BASOPT|       16     |       1     | 0.33216042E-02 | 0.33038184E+04 |     79.3
 BASOPT|       17     |       1     | 0.31036755E-02 | 0.46868330E+03 |     40.1
 BASOPT|       18     |       1     | 0.19601274E-02 | 0.53181427E+03 |     34.7
 BASOPT|       19     |       1     | 0.24257446E-02 | 0.61887543E+03 |     36.6
 BASOPT|       20     |       1     | 0.32001977E-02 | 0.78313129E+03 |     50.5
 BASOPT|       21     |       1     | 0.18223004E-02 | 0.61373627E+03 |     33.7
 BASOPT|       22     |       1     | 0.19092329E-02 | 0.53839943E+03 |     38.6
 BASOPT|       23     |       1     | 0.74915590E-03 | 0.35670007E+03 |     25.8
 BASOPT|       24     |       1     | 0.34556056E-02 | 0.14285708E+03 |     15.1
 BASOPT|       25     |       1     | 0.88402938E-03 | 0.17398488E+03 |     10.6
 BASOPT|       26     |       1     | 0.31014308E-02 | 0.91891612E+03 |     49.8
 BASOPT|       27     |       1     | 0.17747513E-02 | 0.44413980E+03 |     25.0
 BASOPT|       28     |       1     | 0.20698805E-02 | 0.47378980E+03 |     19.8
 BASOPT|       29     |       1     | 0.16286964E-02 | 0.39310530E+03 |     13.4
 BASOPT|       30     |       1     | 0.67544649E-03 | 0.22937324E+03 |      8.2
 BASOPT|       31     |       1     | 0.14682364E-02 | 0.83496986E+03 |     20.1
 BASOPT|       32     |       1     | 0.10185233E-02 | 0.19887976E+03 |      9.8
 BASOPT|       33     |       1     | 0.29627448E-02 | 0.43957164E+03 |     20.9
 BASOPT|       34     |       1     | 0.30715241E-02 | 0.13266829E+04 |     24.9
 BASOPT|       35     |       1     | 0.35246142E-02 | 0.22967633E+04 |     35.7
 BASOPT|       36     |       1     | 0.21709187E-02 | 0.79737449E+03 |     16.9
 BASOPT|       37     |       1     | 0.20556563E-02 | 0.11884571E+04 |     22.2
 BASOPT|       38     |       1     | 0.29934973E-02 | 0.11192934E+04 |     35.2
 BASOPT|       39     |       1     | 0.21420367E-02 | 0.98612743E+03 |     12.4
 BASOPT|       40     |       1     | 0.26774428E-02 | 0.95157746E+03 |     32.7
 BASOPT|       41     |       1     | 0.26847943E-02 | 0.12721272E+04 |     24.6
 BASOPT|       42     |       1     | 0.20489115E-02 | 0.69613660E+03 |     17.6
 BASOPT|       43     |       1     | 0.26015839E-02 | 0.76837807E+03 |     33.2
 BASOPT|       44     |       1     | 0.17139325E-02 | 0.34101336E+03 |     16.3
 BASOPT| -----------------------------------------------------------------------
 BASOPT| Total residuum value: -.37255106E+04


 -------------------------------------------------------------------------------
 -                                                                             -
 -                                DBCSR STATISTICS                             -
 -                                                                             -
 -------------------------------------------------------------------------------
 COUNTER                                    TOTAL       BLAS       SMM       ACC
 flops    68 x    68 x     1                27744       0.0%    100.0%      0.0%     
 flops   116 x    68 x     3                47328       0.0%    100.0%      0.0%     
 flops   116 x   116 x     3                80736       0.0%    100.0%      0.0%     
 flops    68 x   116 x     3                94656       0.0%    100.0%      0.0%     
 flops    68 x    68 x     3               166464       0.0%    100.0%      0.0%     
 flops    68 x    68 x     5               231200       0.0%    100.0%      0.0%     
 flops   116 x    68 x     4               315520       0.0%    100.0%      0.0%     
 flops    68 x   116 x     4               315520       0.0%    100.0%      0.0%     
 flops    68 x   116 x     5               315520       0.0%    100.0%      0.0%     
 flops   116 x    68 x     5               315520       0.0%    100.0%      0.0%     
 flops    68 x    68 x     9               332928       0.0%    100.0%      0.0%     
 flops   116 x   116 x     4               430592       0.0%    100.0%      0.0%     
 flops    68 x    68 x    12               443904       0.0%    100.0%      0.0%     
 flops   116 x    68 x     9               567936       0.0%    100.0%      0.0%     
 flops    68 x   116 x     9               709920       0.0%    100.0%      0.0%     
 flops    68 x    68 x     4               739840       0.0%    100.0%      0.0%     
 flops    68 x   116 x    12              1135872       0.0%    100.0%      0.0%     
 flops   116 x    68 x    12              1135872       0.0%    100.0%      0.0%     
 flops    68 x    68 x    10              1202240       0.0%    100.0%      0.0%     
 flops   116 x    68 x     6              1703808       0.0%    100.0%      0.0%     
 flops    68 x   116 x     6              1703808       0.0%    100.0%      0.0%     
 flops    68 x   116 x    10              1735360       0.0%    100.0%      0.0%     
 flops   116 x    68 x    10              1735360       0.0%    100.0%      0.0%     
 flops   116 x   116 x     5              2018400       0.0%    100.0%      0.0%     
 flops   116 x    68 x     7              2319072       0.0%    100.0%      0.0%     
 flops    68 x    68 x     8              2367488       0.0%    100.0%      0.0%     
 flops    68 x    68 x     6              2441472       0.0%    100.0%      0.0%     
 flops   116 x    68 x     8              2524160       0.0%    100.0%      0.0%     
 flops    68 x   116 x     7              2539936       0.0%    100.0%      0.0%     
 flops    68 x   116 x     8              2776576       0.0%    100.0%      0.0%     
 flops   116 x   116 x     6              2906496       0.0%    100.0%      0.0%     
 flops   116 x   116 x     9              2906496       0.0%    100.0%      0.0%     
 flops   116 x   116 x     7              3390912       0.0%    100.0%      0.0%     
 flops    68 x    68 x    18              3495744       0.0%    100.0%      0.0%     
 flops   116 x   116 x    13              3498560       0.0%    100.0%      0.0%     
 flops    68 x    68 x     7              4207840       0.0%    100.0%      0.0%     
 flops    10 x     1 x   136              5129920       0.0%    100.0%      0.0%     
 flops   136 x     1 x    10              5129920       0.0%    100.0%      0.0%     
 flops   116 x   116 x     8              5382400       0.0%    100.0%      0.0%     
 flops    68 x   116 x    18              5963328       0.0%    100.0%      0.0%     
 flops   116 x    68 x    18              5963328       0.0%    100.0%      0.0%     
 flops   116 x   116 x    16              6458880       0.0%    100.0%      0.0%     
 flops   116 x   116 x    10              8611840       0.0%    100.0%      0.0%     
 flops    68 x    68 x    15              9294240       0.0%    100.0%      0.0%     
 flops   116 x   116 x    18             13563648       0.0%    100.0%      0.0%     
 flops   116 x   116 x    12             14532480       0.0%    100.0%      0.0%     
 flops   116 x    68 x    15             14908320       0.0%    100.0%      0.0%     
 flops    68 x   116 x    15             14908320       0.0%    100.0%      0.0%     
 flops   116 x   116 x    15             33909120       0.0%    100.0%      0.0%     
 flops    18 x     4 x   184             49971456       0.0%    100.0%      0.0%     
 flops   184 x     4 x    18             49971456       0.0%    100.0%      0.0%     
 flops    68 x     1 x    68             69766912       0.0%    100.0%      0.0%     
 flops    23 x     4 x   252             87450048       0.0%    100.0%      0.0%     
 flops   252 x     4 x    23             87450048       0.0%    100.0%      0.0%     
 flops    28 x     3 x   320            101391360       0.0%    100.0%      0.0%     
 flops   320 x     3 x    28            101391360       0.0%    100.0%      0.0%     
 flops    28 x     4 x   320            135188480       0.0%    100.0%      0.0%     
 flops   320 x     4 x    28            135188480       0.0%    100.0%      0.0%     
 flops   116 x     3 x   116            152268096       0.0%    100.0%      0.0%     
 flops    26 x     7 x   232            159268928       0.0%    100.0%      0.0%     
 flops   232 x     7 x    26            159268928       0.0%    100.0%      0.0%     
 flops    33 x     4 x   388            193186752       0.0%    100.0%      0.0%     
 flops   388 x     4 x    33            193186752       0.0%    100.0%      0.0%     
 flops    31 x     6 x   300            210477600       0.0%    100.0%      0.0%     
 flops   300 x     6 x    31            210477600       0.0%    100.0%      0.0%     
 flops    26 x     5 x   232            227527040       0.0%    100.0%      0.0%     
 flops   232 x     5 x    26            227527040       0.0%    100.0%      0.0%     
 flops    36 x     5 x   368            249857280       0.0%    100.0%      0.0%     
 flops   368 x     5 x    36            249857280       0.0%    100.0%      0.0%     
 flops   116 x     3 x    68            267781824       0.0%    100.0%      0.0%     
 flops    68 x     3 x   116            267781824       0.0%    100.0%      0.0%     
 flops    36 x     7 x   368            349800192       0.0%    100.0%      0.0%     
 flops   368 x     7 x    36            349800192       0.0%    100.0%      0.0%     
 flops    31 x     5 x   300            350796000       0.0%    100.0%      0.0%     
 flops   300 x     5 x    31            350796000       0.0%    100.0%      0.0%     
 flops    41 x     6 x   436            404569632       0.0%    100.0%      0.0%     
 flops   436 x     6 x    41            404569632       0.0%    100.0%      0.0%     
 flops    68 x     3 x    68            470926656       0.0%    100.0%      0.0%     
 flops    39 x    10 x   348            511935840       0.0%    100.0%      0.0%     
 flops   348 x    10 x    39            511935840       0.0%    100.0%      0.0%     
 flops    68 x     5 x    68            523251840       0.0%    100.0%      0.0%     
 flops    46 x     6 x   504            524700288       0.0%    100.0%      0.0%     
 flops   504 x     6 x    46            524700288       0.0%    100.0%      0.0%     
 flops    36 x     6 x   368            599657472       0.0%    100.0%      0.0%     
 flops   368 x     6 x    36            599657472       0.0%    100.0%      0.0%     
 flops    44 x     9 x   416            621384192       0.0%    100.0%      0.0%     
 flops   416 x     9 x    44            621384192       0.0%    100.0%      0.0%     
 flops    46 x     8 x   504            699600384       0.0%    100.0%      0.0%     
 flops   504 x     8 x    46            699600384       0.0%    100.0%      0.0%     
 flops    68 x     9 x    68            784877760       0.0%    100.0%      0.0%     
 flops    49 x     9 x   484            805110768       0.0%    100.0%      0.0%     
 flops   484 x     9 x    49            805110768       0.0%    100.0%      0.0%     
 flops    56 x     6 x   640            811130880       0.0%    100.0%      0.0%     
 flops   640 x     6 x    56            811130880       0.0%    100.0%      0.0%     
 flops   116 x     4 x   116            812096512       0.0%    100.0%      0.0%     
 flops    49 x    10 x   484            894567520       0.0%    100.0%      0.0%     
 flops   484 x    10 x    49            894567520       0.0%    100.0%      0.0%     
 flops    52 x    10 x   464            910108160       0.0%    100.0%      0.0%     
 flops   464 x    10 x    52            910108160       0.0%    100.0%      0.0%     
 flops    68 x    12 x    68           1046503680       0.0%    100.0%      0.0%     
 flops    52 x    12 x   464           1092129792       0.0%    100.0%      0.0%     
 flops   464 x    12 x    52           1092129792       0.0%    100.0%      0.0%     
 flops    52 x    13 x   464           1183140608       0.0%    100.0%      0.0%     
 flops   464 x    13 x    52           1183140608       0.0%    100.0%      0.0%     
 flops   116 x     4 x    68           1190141440       0.0%    100.0%      0.0%     
 flops    68 x     4 x   116           1190141440       0.0%    100.0%      0.0%     
 flops    68 x     5 x   116           1190141440       0.0%    100.0%      0.0%     
 flops   116 x     5 x    68           1190141440       0.0%    100.0%      0.0%     
 flops    46 x     7 x   504           1224300672       0.0%    100.0%      0.0%     
 flops   504 x     7 x    46           1224300672       0.0%    100.0%      0.0%     
 flops    57 x    12 x   532           1372585536       0.0%    100.0%      0.0%     
 flops   532 x    12 x    57           1372585536       0.0%    100.0%      0.0%     
 flops    72 x     8 x   736           1599086592       0.0%    100.0%      0.0%     
 flops   736 x     8 x    72           1599086592       0.0%    100.0%      0.0%     
 flops    62 x    12 x   600           1683820800       0.0%    100.0%      0.0%     
 flops   600 x    12 x    62           1683820800       0.0%    100.0%      0.0%     
 flops    65 x    12 x   580           1706452800       0.0%    100.0%      0.0%     
 flops   580 x    12 x    65           1706452800       0.0%    100.0%      0.0%     
 flops    54 x     8 x   552           1798972416       0.0%    100.0%      0.0%     
 flops   552 x     8 x    54           1798972416       0.0%    100.0%      0.0%     
 flops    56 x     7 x   640           1892638720       0.0%    100.0%      0.0%     
 flops   640 x     7 x    56           1892638720       0.0%    100.0%      0.0%     
 flops    72 x    10 x   736           1998858240       0.0%    100.0%      0.0%     
 flops   736 x    10 x    72           1998858240       0.0%    100.0%      0.0%     
 flops    68 x     4 x    68           2093007360       0.0%    100.0%      0.0%     
 flops    65 x    16 x   580           2275270400       0.0%    100.0%      0.0%     
 flops   580 x    16 x    65           2275270400       0.0%    100.0%      0.0%     
 flops    68 x     9 x   116           2410036416       0.0%    100.0%      0.0%     
 flops   116 x     9 x    68           2410036416       0.0%    100.0%      0.0%     
 flops    68 x    10 x    68           3488345600       0.0%    100.0%      0.0%     
 flops    68 x    12 x   116           4284509184       0.0%    100.0%      0.0%     
 flops   116 x    12 x    68           4284509184       0.0%    100.0%      0.0%     
 flops   116 x     5 x   116           5075603200       0.0%    100.0%      0.0%     
 flops    98 x    15 x   968           5367405120       0.0%    100.0%      0.0%     
 flops   968 x    15 x    98           5367405120       0.0%    100.0%      0.0%     
 flops   103 x    15 x  1036           6037538640       0.0%    100.0%      0.0%     
 flops  1036 x    15 x   103           6037538640       0.0%    100.0%      0.0%     
 flops   116 x     6 x    68           6426763776       0.0%    100.0%      0.0%     
 flops    68 x     6 x   116           6426763776       0.0%    100.0%      0.0%     
 flops    68 x    10 x   116           6545777920       0.0%    100.0%      0.0%     
 flops   116 x    10 x    68           6545777920       0.0%    100.0%      0.0%     
 flops    68 x     8 x    68           6976691200       0.0%    100.0%      0.0%     
 flops   116 x     6 x   116           7308868608       0.0%    100.0%      0.0%     
 flops    68 x     6 x    68           7325525760       0.0%    100.0%      0.0%     
 flops   116 x     9 x   116           8222477184       0.0%    100.0%      0.0%     
 flops   116 x     7 x   116           8527013376       0.0%    100.0%      0.0%     
 flops   116 x     7 x    68           9164089088       0.0%    100.0%      0.0%     
 flops    68 x     7 x   116           9164089088       0.0%    100.0%      0.0%     
 flops   116 x     8 x    68           9997188096       0.0%    100.0%      0.0%     
 flops    68 x     8 x   116           9997188096       0.0%    100.0%      0.0%     
 flops   121 x    18 x  1220          10022807520       0.0%    100.0%      0.0%     
 flops  1220 x    18 x   121          10022807520       0.0%    100.0%      0.0%     
 flops   116 x    13 x   116          10557254656       0.0%    100.0%      0.0%     
 flops    68 x    18 x    68          11302239744       0.0%    100.0%      0.0%     
 flops    68 x     7 x    68          13185946368       0.0%    100.0%      0.0%     
 flops   108 x    15 x  1104          13492293120       0.0%    100.0%      0.0%     
 flops  1104 x    15 x   108          13492293120       0.0%    100.0%      0.0%     
 flops   116 x     8 x   116          15429833728       0.0%    100.0%      0.0%     
 flops   116 x    16 x   116          20302412800       0.0%    100.0%      0.0%     
 flops    68 x    18 x   116          22493673216       0.0%    100.0%      0.0%     
 flops   116 x    18 x    68          22493673216       0.0%    100.0%      0.0%     
 flops   116 x    10 x   116          25378016000       0.0%    100.0%      0.0%     
 flops    68 x    15 x    68          29563728960       0.0%    100.0%      0.0%     
 flops   116 x    12 x   116          44462284032       0.0%    100.0%      0.0%     
 flops   116 x    18 x   116          44766820224       0.0%    100.0%      0.0%     
 flops   116 x    15 x    68          56234183040       0.0%    100.0%      0.0%     
 flops    68 x    15 x   116          56234183040       0.0%    100.0%      0.0%     
 flops   116 x    15 x   116         109633029120       0.0%    100.0%      0.0%     
 flops inhomo. stacks                           0       0.0%      0.0%      0.0%
 flops total                       741.353959E+09       0.0%    100.0%      0.0%
 flops max/rank                    203.603819E+09       0.0%    100.0%      0.0%
 matmuls inhomo. stacks                         0       0.0%      0.0%      0.0%
 matmuls total                            3278813       0.0%    100.0%      0.0%
 number of processed stacks                441469       0.0%    100.0%      0.0%
 average stack size                                     0.0       7.4       0.0
 marketing flops                   741.493703E+09
 -------------------------------------------------------------------------------
 # multiplications                          11318
 max memory usage/rank               4.510147E+09
 # max total images/rank                        1
 # max 3D layers                                1
 # MPI messages exchanged                       0
 -------------------------------------------------------------------------------
 -                                                                             -
 -                      DBCSR MESSAGE PASSING PERFORMANCE                      -
 -                                                                             -
 -------------------------------------------------------------------------------
 ROUTINE             CALLS      AVE VOLUME [Bytes]
 MP_Bcast              169                     12.
 MP_Allreduce        49401                      8.
 MP_Alltoall        252742                  32248.
 MP_ISend            45272                    510.
 MP_IRecv            45272                    510.
 -------------------------------------------------------------------------------

 -------------------------------------------------------------------------------
 -                                                                             -
 -                                GRID STATISTICS                              -
 -                                                                             -
 -------------------------------------------------------------------------------
 LP    KERNEL             BACKEND                              COUNT     PERCENT
 5     collocate ortho    CPU                                   2670       8.36%
 5     integrate ortho    CPU                                   2670       8.36%
 3     collocate ortho    CPU                                   2616       8.19%
 3     integrate ortho    CPU                                   2616       8.19%
 0     collocate ortho    CPU                                   2297       7.19%
 0     integrate ortho    CPU                                   2297       7.19%
 2     collocate ortho    CPU                                   2280       7.14%
 2     integrate ortho    CPU                                   2280       7.14%
 4     collocate ortho    CPU                                   2116       6.63%
 4     integrate ortho    CPU                                   2116       6.63%
 1     collocate ortho    CPU                                   1808       5.66%
 1     integrate ortho    CPU                                   1808       5.66%
 8     collocate ortho    CPU                                    784       2.46%
 8     integrate ortho    CPU                                    784       2.46%
 6     collocate ortho    CPU                                    747       2.34%
 6     integrate ortho    CPU                                    747       2.34%
 7     collocate ortho    CPU                                    640       2.00%
 7     integrate ortho    CPU                                    640       2.00%
 0     collocate general  CPU                                     13       0.04%
 -------------------------------------------------------------------------------

 -------------------------------------------------------------------------------
 -                                                                             -
 -                          OFFLOAD MEMPOOL STATISTICS                         -
 -                                                                             -
 -------------------------------------------------------------------------------
 Memory consumption                Number of allocations  Used [MiB]  Size [MiB]
 Host                                                  6          59   133696309
 -------------------------------------------------------------------------------

 MEMORY| Estimated peak process memory [MiB]                                 613

 -------------------------------------------------------------------------------
 -                                                                             -
 -                         MESSAGE PASSING PERFORMANCE                         -
 -                                                                             -
 -------------------------------------------------------------------------------

 ROUTINE             CALLS      AVE VOLUME [Bytes]
 MP_Bcast            13239                   1284.
 MP_Allreduce        62271                     47.
 MP_Sync              9430
 MP_Alltoall         11322                  62022.
 MP_comm_split        7545
 -------------------------------------------------------------------------------


 -------------------------------------------------------------------------------
 -                                                                             -
 -                           R E F E R E N C E S                               -
 -                                                                             -
 -------------------------------------------------------------------------------
 
 CP2K version 2026.2 (Development Version), the CP2K developers group (2026).
 CP2K is freely available from https://www.cp2k.org/ .
 
 M. Iannuzzi, J. Wilhelm, F. Stein, A. Bussy, H. Elgabarty, D. Golze, A. Hehn, 
 M. Graml, S. Marek, B. Sertcan Gökmen, C. Schran, H. Forbert, R. Z. 
 Khaliullin, A. Kozhevnikov, M. Taillefumier, R. Meli, V. V. Rybkin, M. Brehm, 
 R. Schade, O. Schütt, J. V. Pototschnig, H. Mirhosseini, A. Knüpfer, D. Marx, 
 M. Krack, J. Hutter, T. D. Kühne.
 J. Phys. Chem. B 130, 1237-1310 (2026).
 The CP2K Program Package Made Simple.
 https://doi.org/10.1021/acs.jpcb.5c05851

 T. D. Kühne, M. Iannuzzi, M. Del Ben, V. V. Rybkin, P. Seewald, F. Stein, T. 
 Laino, R. Z. Khaliullin, O. Schütt, F. Schiffmann, D. Golze, J. Wilhelm, S. 
 Chulkov, M. H. Bani-Hashemian, V. Weber, U. Borstnik, M. Taillefumier, A. S. 
 Jakobovits, A. Lazzaro, H. Pabst, T. Müller, R. Schade, M. Guidon, S. 
 Andermatt, N. Holmberg, G. K. Schenter, A. Hehn, A. Bussy, F. Belleflamme, G. 
 Tabacchi, A. Glöß, M. Lass, I. Bethune, C. J. Mundy, C. Plessl, M. Watkins, 
 J. VandeVondele, M. Krack, J. Hutter.
 J. Chem. Phys. 152, 194103 (2020).
 CP2K: An electronic structure and molecular dynamics software package - 
 Quickstep: Efficient and accurate electronic structure calculations.
 https://doi.org/10.1063/5.0007045

 O. Schuett, P. Messmer, J. Hutter, J. VandeVondele.
 Electronic Structure Calculations on Graphics Processing Units, 173-190 (2016).
 GPU-Accelerated Sparse Matrix-Matrix Multiplication for Linear Scaling Density 
 Functional Theory.
 https://doi.org/10.1002/9781118670712.ch8

 A. Heinecke, G. Henry, M. Hutchinson, H. Pabst.
 Proceedings of Intl. Supercomputing Conference, 981-991 (2016).
 LIBXSMM: Accelerating Small Matrix Multiplications by Runtime Code Generation.
 https://doi.org/10.1109/SC.2016.83

 U. Borstnik, J. VandeVondele, V. Weber, J. Hutter.
 Parallel Comput. 40, 47-58 (2014).
 Sparse matrix multiplication: The distributed block-compressed sparse row 
 library.
 https://doi.org/10.1016/j.parco.2014.03.012

 J. VandeVondele, J. Hutter.
 J. Chem. Phys. 127, 114105 (2007).
 Gaussian basis sets for accurate calculations on molecular systems in gas and 
 condensed phases.
 https://doi.org/10.1063/1.2770708

 J. VandeVondele, M. Krack, F. Mohamed, M. Parrinello, T. Chassaing, J. Hutter.
 Comput. Phys. Commun. 167, 103-128 (2005).
 QUICKSTEP: Fast and accurate density functional calculations using a mixed 
 Gaussian and plane waves approach.
 https://doi.org/10.1016/j.cpc.2004.12.014

 M. Krack.
 Theor. Chem. Acc. 114, 145-152 (2005).
 Pseudopotentials for H to Kr optimized for gradient-corrected 
 exchange-correlation functionals.
 https://doi.org/10.1007/s00214-005-0655-y

 M. Frigo, S. G. Johnson.
 Proc. IEEE 93, 216-231 (2005).
 The design and implementation of FFTW3.
 https://doi.org/10.1109/JPROC.2004.840301

 C. Hartwigsen, S. Goedecker, J. Hutter.
 Phys. Rev. B 58, 3641-3662 (1998).
 Relativistic separable dual-space Gaussian pseudopotentials from H to Rn.
 https://doi.org/10.1103/PhysRevB.58.3641

 G. Lippert, J. Hutter, M. Parrinello.
 Mol. Phys. 92, 477-487 (1997).
 A hybrid Gaussian and plane wave density functional scheme.
 https://doi.org/10.1080/002689797170220

 S. Goedecker, M. Teter, J. Hutter.
 Phys. Rev. B 54, 1703-1710 (1996).
 Separable dual-space Gaussian pseudopotentials.
 https://doi.org/10.1103/PhysRevB.54.1703

 J. P. Perdew, K. Burke, M. Ernzerhof.
 Phys. Rev. Lett. 77, 3865-3868 (1996).
 Generalized gradient approximation made simple.
 https://doi.org/10.1103/PhysRevLett.77.3865


 -------------------------------------------------------------------------------
 -                                                                             -
 -                                T I M I N G                                  -
 -                                                                             -
 -------------------------------------------------------------------------------
 SUBROUTINE                       CALLS  ASD         SELF TIME        TOTAL TIME
                                MAXIMUM       AVERAGE  MAXIMUM  AVERAGE  MAXIMUM
 CP2K                                 1  1.0    0.003    0.007  372.663  372.663
 run_optimize_basis                   1  2.0    0.004    0.006  372.604  372.647
 driver_para_opt_basis                1  3.0    0.000    0.000  372.547  372.589
 driver_optimization_para_low         1  4.0    0.041    0.084  372.544  372.587
 compute_residuum_vectors          1886  5.0    0.187    0.422  357.877  362.710
 mp_sum_dm                         1886  6.0  296.642  353.571  296.642  353.571
 build_overlap_matrix_low          7548  6.0   41.273  260.057   41.433  260.523
 evaluate_optvals                  3772  6.0    0.040    0.089   13.603   72.026
 init_training_force_envs             1  5.0    0.015    0.046   11.962   44.620
 cp_dbcsr_sm_fm_multiply          11316  7.0    0.098    0.232    9.466   40.483
 cp_dbcsr_sm_fm_multiply_core     11316  8.0    0.018    0.045    6.733   33.249
 dbcsr_multiply_generic           11318  9.0    0.226    0.476    6.719   33.232
 parallel_gemm_fm_cosma           15088  7.0    3.908   24.839    3.908   24.839
 qs_ks_update_qs_env                  2  6.0    0.000    0.000    6.468   22.558
 rebuild_ks_matrix                    2  7.0    0.000    0.000    6.467   22.553
 qs_ks_build_kohn_sham_matrix         2  8.0    0.001    0.002    6.466   22.553
 fft_wrap_pw1pw2                     36 11.2    0.001    0.002    5.244   19.939
 fft_wrap_pw1pw2_300                 24 12.5    0.144    0.429    5.006   18.316
 fit_mo_coeffs                     3772  6.0    0.458    2.142    5.073   17.801
 make_m2s                         22636 10.0    0.112    0.253    3.546   17.486
 make_images                      22636 11.0    0.232    0.538    2.900   15.415
 qs_vxc_create                        2  9.0    0.000    0.000    4.491   14.922
 xc_vxc_pw_create                     2 10.0    0.065    0.231    4.491   14.922
 multiply_cannon                  11318 10.0    0.656    1.495    2.391   14.221
 multiply_cannon_loop             11318 11.0    0.025    0.048    1.427   12.387
 multiply_cannon_multrec          11318 12.0    1.371   12.267    1.398   12.333
 fft3d_s                             37 12.7    2.806   12.050    2.839   12.082
 overlap_condnum                   3772  7.0    0.054    0.127    2.661   12.065
 cp_fm_power                       7544  7.5    0.471    1.913    2.591   11.595
 copy_dbcsr_to_fm                 18862  7.8    0.125    0.340    2.875   11.396
 create_force_env                     2  6.0    2.746   10.630    2.746   10.630
 xc_pw_derive                        12 12.0    0.000    0.001    2.798    9.845
 cp_fm_syevd                       7544  8.5    0.021    0.042    1.976    8.970
 make_images_data                 22636 12.0    0.122    0.245    1.423    8.419
 cp_fm_syevd_base                  7544  9.5    1.423    7.976    1.423    7.976
 hybrid_alltoall_any              26408 12.4    1.097    7.656    1.143    7.767
 xc_rho_set_and_dset_create           2 11.0    0.062    0.165    2.515    7.709
 -------------------------------------------------------------------------------

 The number of warnings for this run is : 0
 
 -------------------------------------------------------------------------------
  **** **** ******  **  PROGRAM ENDED AT                 2026-10-07 14:21:06.929
 ***** ** ***  *** **   PROGRAM RAN ON                                   tcopt10
 **    ****   ******    PROGRAM RAN BY                                    hutter
 ***** **    ** ** **   PROGRAM PROCESS ID                               3007798
  **** **  *******  **  PROGRAM STOPPED IN /data/hutter/GITHUB/BASIS/MOLOPT/PBE/
                                           hbcnof
