&FORCE_EVAL
  METHOD Quickstep
  &DFT
    BASIS_SET_FILE_NAME ../SCAN_UCBASIS
    POTENTIAL_FILE_NAME ../POTENTIAL
    &MGRID
      CUTOFF 100
      REL_CUTOFF  60
    &END MGRID
    &QS
      EPS_DEFAULT 1.0E-12
    &END QS
    &SCF
      EPS_SCF 1.0E-7
      MAX_SCF 10
      SCF_GUESS RESTART
      &OT
         MINIMIZER DIIS
         PRECONDITIONER FULL_ALL
      &END OT
      &OUTER_SCF
        EPS_SCF 1.0E-7
        MAX_SCF 10
      &END 
    &END SCF
    &XC
       &XC_FUNCTIONAL
         &LIBXC
          FUNCTIONAL MGGA_X_SCAN
         &END LIBXC
         &LIBXC
          FUNCTIONAL MGGA_C_SCAN
         &END LIBXC
       &END XC_FUNCTIONAL
    &END XC
  &END DFT
  &SUBSYS
    &CELL
      ABC 10.0 10.0 10.0
    &END CELL
    &COORD
Tc       8.40002920       8.00000000       7.36437706     
F       8.40002920       8.00000000       9.22394563     
O       9.20008761       6.61425819       6.77605437    
O       9.20008761       9.38574181       6.77605437   
O       6.79991239       8.00000000       6.77605437  
    &END COORD
    &KIND Tc
      BASIS_SET uc-bas-q15
      POTENTIAL GTH-SCAN-q15
    &END KIND
################################
    &KIND Al
      BASIS_SET uc-bas-q3
      POTENTIAL GTH-SCAN-q3
    &END KIND
    &KIND Si
      BASIS_SET uc-bas-q4
      POTENTIAL GTH-SCAN-q4
    &END KIND
    &KIND P 
      BASIS_SET uc-bas-q5
      POTENTIAL GTH-SCAN-q5
    &END KIND
    &KIND S 
      BASIS_SET uc-bas-q6
      POTENTIAL GTH-SCAN-q6
    &END KIND
    &KIND Cl
      BASIS_SET uc-bas-q7
      POTENTIAL GTH-SCAN-q7
    &END KIND
################################
    &KIND H
      BASIS_SET uc-bas-q1
      POTENTIAL GTH-SCAN-q1
    &END KIND
    &KIND B
      BASIS_SET uc-bas-q3
      POTENTIAL GTH-SCAN-q3
    &END KIND
    &KIND C
      BASIS_SET uc-bas-q4
      POTENTIAL GTH-SCAN-q4
    &END KIND
    &KIND N
      BASIS_SET uc-bas-q5
      POTENTIAL GTH-SCAN-q5
    &END KIND
    &KIND O
      BASIS_SET uc-bas-q6
      POTENTIAL GTH-SCAN-q6
    &END KIND
    &KIND F
      BASIS_SET uc-bas-q7
      POTENTIAL GTH-SCAN-q7
    &END KIND
  &END SUBSYS
&END FORCE_EVAL
&GLOBAL
  PROJECT refTcO3Fq15
  RUN_TYPE ENERGY
  PRINT_LEVEL LOW
&END GLOBAL
