&FORCE_EVAL
  METHOD Quickstep
  &DFT
    BASIS_SET_FILE_NAME ../def2QZVPP
    POTENTIAL_FILE_NAME ../POTENTIAL
    &MGRID
      CUTOFF 600
      REL_CUTOFF  60
    &END MGRID
    &QS
      METHOD GAPW
      EPS_DEFAULT 1.0E-14
    &END QS
    &SCF
      EPS_SCF 1.0E-7
      MAX_SCF 20
      SCF_GUESS ATOMIC
      &OT
         MINIMIZER DIIS
         PRECONDITIONER FULL_ALL
      &END OT
      &OUTER_SCF
        EPS_SCF 1.0E-7
        MAX_SCF 10
      &END 
    &END SCF
    &XC
      &XC_FUNCTIONAL PBE
      &END XC_FUNCTIONAL
    &END XC
  &END DFT
  &SUBSYS
    &CELL
      ABC 12.0 12.0 12.0
    &END CELL
    &COORD
Be       8.37093906       9.50000000       9.50000000        4
Be      10.62906094       9.50000000       9.50000000        4
F       9.50000000      10.62826563       9.50000000        9
F       9.50000000       8.37173437       9.50000000        9
F       6.96556380       9.50000000       9.50000000        9
F      12.03443620       9.50000000       9.50000000        9
    &END COORD
################################
    &KIND Be
      BASIS_SET def2-QZVPP
      POTENTIAL ALL
    &END KIND
################################
    &KIND S
      BASIS_SET def2-QZVPP
      POTENTIAL ALL
    &END KIND
    &KIND H
      BASIS_SET def2-QZVPP
      POTENTIAL ALL
    &END KIND
    &KIND C
      BASIS_SET def2-QZVPP
      POTENTIAL ALL
    &END KIND
    &KIND O
      BASIS_SET def2-QZVPP
      POTENTIAL ALL
    &END KIND
    &KIND F
      BASIS_SET def2-QZVPP
      POTENTIAL ALL
    &END KIND
  &END SUBSYS
&END FORCE_EVAL
&GLOBAL
  PROJECT refBe2F4
  RUN_TYPE ENERGY
  PRINT_LEVEL LOW
&END GLOBAL
