&FORCE_EVAL
  METHOD Quickstep
  &DFT
    BASIS_SET_FILE_NAME ../def2QZVPP
    POTENTIAL_FILE_NAME ../POTENTIAL
    &MGRID
      CUTOFF 600
      REL_CUTOFF  60
    &END MGRID
    &QS
      METHOD GAPW
      EPS_DEFAULT 1.0E-14
    &END QS
    &SCF
      EPS_SCF 1.0E-7
      MAX_SCF 20
      SCF_GUESS ATOMIC
      &OT
         MINIMIZER DIIS
         PRECONDITIONER FULL_ALL
      &END OT
      &OUTER_SCF
        EPS_SCF 1.0E-7
        MAX_SCF 10
      &END 
    &END SCF
    &XC
      &XC_FUNCTIONAL PBE
      &END XC_FUNCTIONAL
    &END XC
  &END DFT
  &SUBSYS
    &CELL
      ABC 12.0 12.0 12.0
    &END CELL
    &COORD
Be       8.50000000       8.50000000       8.50000000        
C       8.49989393      10.18643476       8.50000000        
C       8.50010607       6.81356524       8.50000000        
H       9.52807196      10.61397633       8.50000000        
H       9.01399781       6.38603873       7.60937781        
H       7.98600219      10.61396127       7.60937781        
H       7.47192804       6.38602367       8.50000000        
H       7.98600219      10.61396127       9.39062219        
H       9.01399781       6.38603873       9.39062219        
    &END COORD
################################
    &KIND Be
      BASIS_SET def2-QZVPP
      POTENTIAL ALL
    &END KIND
################################
    &KIND S
      BASIS_SET def2-QZVPP
      POTENTIAL ALL
    &END KIND
    &KIND H
      BASIS_SET def2-QZVPP
      POTENTIAL ALL
    &END KIND
    &KIND C
      BASIS_SET def2-QZVPP
      POTENTIAL ALL
    &END KIND
    &KIND O
      BASIS_SET def2-QZVPP
      POTENTIAL ALL
    &END KIND
    &KIND F
      BASIS_SET def2-QZVPP
      POTENTIAL ALL
    &END KIND
  &END SUBSYS
&END FORCE_EVAL
&GLOBAL
  PROJECT refBeC2H6
  RUN_TYPE ENERGY
  PRINT_LEVEL LOW
&END GLOBAL
