&GLOBAL
  PROJECT molopt
  PROGRAM_NAME OPTIMIZE_BASIS
&END GLOBAL
&OPTIMIZE_BASIS

   ! BASIS_TEMPLATE_FILE contains a basis set which is used as a 
   ! starting point for optimization
   BASIS_TEMPLATE_FILE ./BASIS_INPUT

   ! BASIS_WORK_FILE contains the basis set generated with the information below
   BASIS_WORK_FILE WORK_BASIS_STRUCTURE

   ! BASIS_OUTPUT_FILE contains the result basis and intermediate basis set. 
   BASIS_OUTPUT_FILE molopt_dzvp

   ! specify basis set combinations being fitted together
   BASIS_COMBINATIONS 0 0 0 0 0 0 0 0 0 0 0

   USE_CONDITION_NUMBER 

   ! specify the weights on the CN for all combinations
   CONDITION_WEIGHT 0.01 ! 0

   ! specify the weights on the residuums for all combinations
   RESIDUUM_WEIGHT 10  ! 0

   WRITE_FREQUENCY 100

   &OPTIMIZATION
      MAX_FUN 100000
   &END

   &TRAINING_FILES
     INPUT_FILE_NAME Al2O3-opt.inp  
   &END
   &TRAINING_FILES
     INPUT_FILE_NAME AlN-opt.inp   
   &END
   &TRAINING_FILES
     INPUT_FILE_NAME H2SO4-opt.inp  
   &END
   &TRAINING_FILES
     INPUT_FILE_NAME HSSH-opt.inp  
   &END
   &TRAINING_FILES
     INPUT_FILE_NAME S2-opt.inp   
   &END
   &TRAINING_FILES
     INPUT_FILE_NAME SiCl4-opt.inp
   &END
   &TRAINING_FILES
     INPUT_FILE_NAME Al2S3-opt.inp  
   &END
   &TRAINING_FILES
     INPUT_FILE_NAME Cl2-opt.inp   
   &END
   &TRAINING_FILES
     INPUT_FILE_NAME H3PO4-opt.inp  
   &END
   &TRAINING_FILES
     INPUT_FILE_NAME S5-opt.inp   
   &END
   &TRAINING_FILES
     INPUT_FILE_NAME SiF4-opt.inp                          
   &END
   &TRAINING_FILES
     INPUT_FILE_NAME AlCl3-opt.inp  
   &END
   &TRAINING_FILES
     INPUT_FILE_NAME ClF3-opt.inp  
   &END
   &TRAINING_FILES
     INPUT_FILE_NAME HCl-opt.inp    
   &END
   &TRAINING_FILES
     INPUT_FILE_NAME PF3-opt.inp   
   &END
   &TRAINING_FILES
     INPUT_FILE_NAME SF2-opt.inp  
   &END
   &TRAINING_FILES
     INPUT_FILE_NAME SiO2-opt.inp                          
   &END
   &TRAINING_FILES
     INPUT_FILE_NAME AlF3-opt.inp   
   &END
   &TRAINING_FILES
     INPUT_FILE_NAME ClF-opt.inp   
   &END
   &TRAINING_FILES
     INPUT_FILE_NAME HCP-opt.inp    
   &END
   &TRAINING_FILES
     INPUT_FILE_NAME PF5-opt.inp   
   &END
   &TRAINING_FILES
     INPUT_FILE_NAME SF4-opt.inp  
   &END
   &TRAINING_FILES
     INPUT_FILE_NAME SiS2-opt.inp                          
   &END
   &TRAINING_FILES
     INPUT_FILE_NAME AlH3-opt.inp   
   &END
   &TRAINING_FILES
     INPUT_FILE_NAME CS2-opt.inp   
   &END
   &TRAINING_FILES
     INPUT_FILE_NAME HSH-opt.inp    
   &END
   &TRAINING_FILES
     INPUT_FILE_NAME PH3-opt.inp   
   &END
   &TRAINING_FILES
     INPUT_FILE_NAME SF6-opt.inp
   &END

#########################################################
   &FIT_KIND Al
     BASIS_SET DZVP-MOLOPT-PBE0-GTH-q3
     INITIAL_DEGREES_OF_FREEDOM ALL
   &END 
   &FIT_KIND Si
     BASIS_SET DZVP-MOLOPT-PBE0-GTH-q4
     INITIAL_DEGREES_OF_FREEDOM ALL
   &END 
   &FIT_KIND P 
     BASIS_SET DZVP-MOLOPT-PBE0-GTH-q5
     INITIAL_DEGREES_OF_FREEDOM ALL
   &END 
   &FIT_KIND S 
     BASIS_SET DZVP-MOLOPT-PBE0-GTH-q6
     INITIAL_DEGREES_OF_FREEDOM ALL
   &END 
   &FIT_KIND Cl
     BASIS_SET DZVP-MOLOPT-PBE0-GTH-q7
     INITIAL_DEGREES_OF_FREEDOM ALL
   &END 
#########################################################
   &FIT_KIND H
     BASIS_SET DZVP-MOLOPT-PBE0-GTH-q1
     INITIAL_DEGREES_OF_FREEDOM NONE
   &END   
   &FIT_KIND B
     BASIS_SET DZVP-MOLOPT-PBE0-GTH-q3
     INITIAL_DEGREES_OF_FREEDOM NONE
   &END 
   &FIT_KIND C
     BASIS_SET DZVP-MOLOPT-PBE0-GTH-q4
     INITIAL_DEGREES_OF_FREEDOM NONE
   &END 
   &FIT_KIND N
     BASIS_SET DZVP-MOLOPT-PBE0-GTH-q5
     INITIAL_DEGREES_OF_FREEDOM NONE
   &END 
   &FIT_KIND O
     BASIS_SET DZVP-MOLOPT-PBE0-GTH-q6
     INITIAL_DEGREES_OF_FREEDOM NONE
   &END 
   &FIT_KIND F
     BASIS_SET DZVP-MOLOPT-PBE0-GTH-q7
     INITIAL_DEGREES_OF_FREEDOM NONE
   &END
 &END 
&END
