&GLOBAL
  PROJECT molopt
  PROGRAM_NAME OPTIMIZE_BASIS
&END GLOBAL
&OPTIMIZE_BASIS

   ! BASIS_TEMPLATE_FILE contains a basis set which is used as a 
   ! starting point for optimization
   BASIS_TEMPLATE_FILE ./BASIS_INPUT

   ! BASIS_WORK_FILE contains the basis set generated with the information below
   BASIS_WORK_FILE WORK_BASIS_STRUCTURE

   ! BASIS_OUTPUT_FILE contains the result basis and intermediate basis set. 
   BASIS_OUTPUT_FILE molopt_dzvp

   ! specify basis set combinations being fitted together
   BASIS_COMBINATIONS 0 0 0 0 0 0

   USE_CONDITION_NUMBER 

   ! specify the weights on the CN for all combinations
   CONDITION_WEIGHT 0.01 ! 0

   ! specify the weights on the residuums for all combinations
   RESIDUUM_WEIGHT 10  ! 0

   WRITE_FREQUENCY 100

   &OPTIMIZATION
      MAX_FUN 100000
   &END

   &TRAINING_FILES
     INPUT_FILE_NAME B2H6-opt.inp
   &END
   &TRAINING_FILES
     INPUT_FILE_NAME B2O3-opt.inp
   &END
   &TRAINING_FILES
     INPUT_FILE_NAME B3N3H6-opt.inp
   &END
   &TRAINING_FILES
     INPUT_FILE_NAME B4H4-opt.inp
   &END
   &TRAINING_FILES
     INPUT_FILE_NAME BF3-opt.inp
   &END
   &TRAINING_FILES
     INPUT_FILE_NAME BH3CO-opt.inp
   &END
   &TRAINING_FILES
     INPUT_FILE_NAME BH3NH3-opt.inp
   &END
   &TRAINING_FILES
     INPUT_FILE_NAME BH3-opt.inp
   &END
   &TRAINING_FILES
     INPUT_FILE_NAME C2H2-opt.inp
   &END
   &TRAINING_FILES
     INPUT_FILE_NAME C2H4-opt.inp
   &END
   &TRAINING_FILES
     INPUT_FILE_NAME C2H6-opt.inp
   &END
   &TRAINING_FILES
     INPUT_FILE_NAME C4H4N2-opt.inp
   &END
   &TRAINING_FILES
     INPUT_FILE_NAME C4H4-opt.inp
   &END
   &TRAINING_FILES
     INPUT_FILE_NAME C5H5N-opt.inp
   &END
#   &TRAINING_FILES
#     INPUT_FILE_NAME C6H5OH-opt.inp
#   &END
#   &TRAINING_FILES
#     INPUT_FILE_NAME C6H6-opt.inp
#   &END
   &TRAINING_FILES
     INPUT_FILE_NAME CF4-opt.inp
   &END
   &TRAINING_FILES
     INPUT_FILE_NAME CH2F2-opt.inp
   &END
   &TRAINING_FILES
     INPUT_FILE_NAME CH2O2-opt.inp
   &END
   &TRAINING_FILES
     INPUT_FILE_NAME CH3CN-opt.inp
   &END
   &TRAINING_FILES
     INPUT_FILE_NAME CH3N-opt.inp
   &END
   &TRAINING_FILES
     INPUT_FILE_NAME CH3OH-opt.inp
   &END
   &TRAINING_FILES
     INPUT_FILE_NAME CH4-opt.inp
   &END
   &TRAINING_FILES
     INPUT_FILE_NAME CO-opt.inp
   &END
   &TRAINING_FILES
     INPUT_FILE_NAME F2-opt.inp
   &END
   &TRAINING_FILES
     INPUT_FILE_NAME H2CO3-opt.inp
   &END
   &TRAINING_FILES
     INPUT_FILE_NAME H2CO-opt.inp
   &END
   &TRAINING_FILES
     INPUT_FILE_NAME H2O2-opt.inp
   &END
   &TRAINING_FILES
     INPUT_FILE_NAME H2O-opt.inp
   &END
   &TRAINING_FILES
     INPUT_FILE_NAME H2-opt.inp
   &END
   &TRAINING_FILES
     INPUT_FILE_NAME HCN-opt.inp
   &END
   &TRAINING_FILES
     INPUT_FILE_NAME HF-opt.inp
   &END
   &TRAINING_FILES
     INPUT_FILE_NAME HNC-opt.inp
   &END
   &TRAINING_FILES
     INPUT_FILE_NAME HNO2-opt.inp
   &END
   &TRAINING_FILES
     INPUT_FILE_NAME HNO3-opt.inp
   &END
   &TRAINING_FILES
     INPUT_FILE_NAME HNO-opt.inp
   &END
   &TRAINING_FILES
     INPUT_FILE_NAME N2H2-opt.inp
   &END
   &TRAINING_FILES
     INPUT_FILE_NAME N2H4-opt.inp
   &END
   &TRAINING_FILES
     INPUT_FILE_NAME N2-opt.inp
   &END
   &TRAINING_FILES
     INPUT_FILE_NAME N4-opt.inp
   &END
   &TRAINING_FILES
     INPUT_FILE_NAME NF3-opt.inp
   &END
   &TRAINING_FILES
     INPUT_FILE_NAME NH3-opt.inp
   &END
   &TRAINING_FILES
     INPUT_FILE_NAME NH4F-opt.inp
   &END
   &TRAINING_FILES
     INPUT_FILE_NAME OF2-opt.inp
   &END
     
   &FIT_KIND H
     BASIS_SET DZVP-MOLOPT-PBE0-GTH-q1
     INITIAL_DEGREES_OF_FREEDOM ALL
   &END   
   &FIT_KIND B
     BASIS_SET DZVP-MOLOPT-PBE0-GTH-q3
     INITIAL_DEGREES_OF_FREEDOM ALL
   &END 
   &FIT_KIND C
     BASIS_SET DZVP-MOLOPT-PBE0-GTH-q4
     INITIAL_DEGREES_OF_FREEDOM ALL
   &END 
   &FIT_KIND N
     BASIS_SET DZVP-MOLOPT-PBE0-GTH-q5
     INITIAL_DEGREES_OF_FREEDOM ALL
   &END 
   &FIT_KIND O
     BASIS_SET DZVP-MOLOPT-PBE0-GTH-q6
     INITIAL_DEGREES_OF_FREEDOM ALL
   &END 
   &FIT_KIND F
     BASIS_SET DZVP-MOLOPT-PBE0-GTH-q7
     INITIAL_DEGREES_OF_FREEDOM ALL
   &END
 &END 
&END
