&GLOBAL
  PROJECT molopt
  PROGRAM_NAME OPTIMIZE_BASIS
&END GLOBAL
&OPTIMIZE_BASIS

   ! BASIS_TEMPLATE_FILE contains a basis set which is used as a 
   ! starting point for optimization
   BASIS_TEMPLATE_FILE ./BASIS_INPUT

   ! BASIS_WORK_FILE contains the basis set generated with the information below
   BASIS_WORK_FILE WORK_BASIS_STRUCTURE

   ! BASIS_OUTPUT_FILE contains the result basis and intermediate basis set. 
   BASIS_OUTPUT_FILE molopt_all

   ! specify basis set combinations being fitted together
   BASIS_COMBINATIONS 0 0 0 0
   BASIS_COMBINATIONS 1 1 1 1
   BASIS_COMBINATIONS 2 2 2 2

   USE_CONDITION_NUMBER 

   ! specify the weights on the CN for all combinations
   CONDITION_WEIGHT 0.01 ! 0
   CONDITION_WEIGHT 0.01 ! 1
   CONDITION_WEIGHT 0.01 ! 2

   ! specify the weights on the residuums for all combinations
   RESIDUUM_WEIGHT 10  ! 0
   RESIDUUM_WEIGHT 10  ! 1
   RESIDUUM_WEIGHT 10  ! 2

   WRITE_FREQUENCY 100

   &OPTIMIZATION
      MAX_FUN 20000
   &END

#  &TRAINING_FILES
#    INPUT_FILE_NAME B2H6-ref.inp
#  &END
#  &TRAINING_FILES
#    INPUT_FILE_NAME B2O3-ref.inp
#  &END
#  &TRAINING_FILES
#    INPUT_FILE_NAME B3N3H6-ref.inp
#  &END
#   &TRAINING_FILES
#     INPUT_FILE_NAME B4H4-ref.inp
#   &END
#  &TRAINING_FILES
#    INPUT_FILE_NAME BF3-ref.inp
#  &END
#   &TRAINING_FILES
#     INPUT_FILE_NAME BH3CO-ref.inp
#   &END
#   &TRAINING_FILES
#     INPUT_FILE_NAME BH3NH3-ref.inp
#   &END
#  &TRAINING_FILES
#    INPUT_FILE_NAME BH3-ref.inp
#  &END
   &TRAINING_FILES
     INPUT_FILE_NAME C2H2-ref.inp
   &END
   &TRAINING_FILES
     INPUT_FILE_NAME C2H4-ref.inp
   &END
   &TRAINING_FILES
     INPUT_FILE_NAME C2H6-ref.inp
   &END
   &TRAINING_FILES
     INPUT_FILE_NAME C4H4N2-ref.inp
   &END
#   &TRAINING_FILES
#     INPUT_FILE_NAME C4H4-ref.inp
#   &END
#   &TRAINING_FILES
#     INPUT_FILE_NAME C5H5N-ref.inp
#   &END
   &TRAINING_FILES
     INPUT_FILE_NAME C6H5OH-ref.inp
   &END
#   &TRAINING_FILES
#     INPUT_FILE_NAME C6H6-ref.inp
#   &END
#   &TRAINING_FILES
#     INPUT_FILE_NAME CF4-ref.inp
#   &END
#   &TRAINING_FILES
#     INPUT_FILE_NAME CH2F2-ref.inp
#   &END
#   &TRAINING_FILES
#     INPUT_FILE_NAME CH2O2-ref.inp
#   &END
#   &TRAINING_FILES
#     INPUT_FILE_NAME CH3CN-ref.inp
#   &END
#   &TRAINING_FILES
#     INPUT_FILE_NAME CH3N-ref.inp
#   &END
#   &TRAINING_FILES
#     INPUT_FILE_NAME CH3OH-ref.inp
#   &END
#   &TRAINING_FILES
#     INPUT_FILE_NAME CH4-ref.inp
#   &END
#   &TRAINING_FILES
#     INPUT_FILE_NAME CO-ref.inp
#   &END
#   &TRAINING_FILES
#     INPUT_FILE_NAME F2-ref.inp
#   &END
#   &TRAINING_FILES
#     INPUT_FILE_NAME H2CO3-ref.inp
#   &END
#   &TRAINING_FILES
#     INPUT_FILE_NAME H2CO-ref.inp
#   &END
#   &TRAINING_FILES
#     INPUT_FILE_NAME H2O2-ref.inp
#   &END
   &TRAINING_FILES
     INPUT_FILE_NAME H2O-ref.inp
   &END
   &TRAINING_FILES
     INPUT_FILE_NAME H2-ref.inp
   &END
   &TRAINING_FILES
     INPUT_FILE_NAME HCN-ref.inp
   &END
#   &TRAINING_FILES
#     INPUT_FILE_NAME HF-ref.inp
#   &END
   &TRAINING_FILES
     INPUT_FILE_NAME HNC-ref.inp
   &END
   &TRAINING_FILES
     INPUT_FILE_NAME HNO2-ref.inp
   &END
   &TRAINING_FILES
     INPUT_FILE_NAME HNO3-ref.inp
   &END
   &TRAINING_FILES
     INPUT_FILE_NAME HNO-ref.inp
   &END
   &TRAINING_FILES
     INPUT_FILE_NAME N2H2-ref.inp
   &END
   &TRAINING_FILES
     INPUT_FILE_NAME N2H4-ref.inp
   &END
   &TRAINING_FILES
     INPUT_FILE_NAME N2-ref.inp
   &END
   &TRAINING_FILES
     INPUT_FILE_NAME N4-ref.inp
   &END
#   &TRAINING_FILES
#     INPUT_FILE_NAME NF3-ref.inp
#   &END
   &TRAINING_FILES
     INPUT_FILE_NAME NH3-ref.inp
   &END
#   &TRAINING_FILES
#     INPUT_FILE_NAME NH4F-ref.inp
#   &END
#   &TRAINING_FILES
#     INPUT_FILE_NAME OF2-ref.inp
#   &END

   &FIT_KIND H
     BASIS_SET TZV2P-MOLOPT-PBE-GTH-q1
     INITIAL_DEGREES_OF_FREEDOM COEFFICIENTS
     &DERIVED_BASIS_SETS
        BASIS_SET_NAME TZVP-MOLOPT-PBE-GTH-q1
        REFERENCE_SET 0
        REMOVE_CONTRACTION 1 1 2
        REMOVE_CONTRACTION 1 2 1
     &END
     &DERIVED_BASIS_SETS
        BASIS_SET_NAME DZVP-MOLOPT-PBE-GTH-q1
        REFERENCE_SET 0
        REMOVE_CONTRACTION 1 0 3
        REMOVE_CONTRACTION 1 1 2
        REMOVE_CONTRACTION 1 2 1
     &END
  &END   
#  &FIT_KIND B
#     BASIS_SET TZV2P-MOLOPT-PBE-GTH-q3
#     INITIAL_DEGREES_OF_FREEDOM COEFFICIENTS
#     &DERIVED_BASIS_SETS
#        BASIS_SET_NAME TZVP-MOLOPT-PBE-GTH-q3
#        REFERENCE_SET 0
#        REMOVE_CONTRACTION 1 3 1
#        REMOVE_CONTRACTION 1 2 2
#     &END
#     &DERIVED_BASIS_SETS
#        BASIS_SET_NAME DZVP-MOLOPT-PBE-GTH-q3
#        REFERENCE_SET 0
#        REMOVE_CONTRACTION 1 3 1
#        REMOVE_CONTRACTION 1 2 2
#        REMOVE_CONTRACTION 1 1 3
#        REMOVE_CONTRACTION 1 0 3
#     &END
#   &END
  &FIT_KIND C
     BASIS_SET TZV2P-MOLOPT-PBE-GTH-q4  
     INITIAL_DEGREES_OF_FREEDOM COEFFICIENTS
     &DERIVED_BASIS_SETS
        BASIS_SET_NAME TZVP-MOLOPT-PBE-GTH-q4
        REFERENCE_SET 0
        REMOVE_CONTRACTION 1 3 1
	REMOVE_CONTRACTION 1 2 2
     &END
     &DERIVED_BASIS_SETS
        BASIS_SET_NAME DZVP-MOLOPT-PBE-GTH-q4
        REFERENCE_SET 0
        REMOVE_CONTRACTION 1 3 1
        REMOVE_CONTRACTION 1 2 2
        REMOVE_CONTRACTION 1 1 3
        REMOVE_CONTRACTION 1 0 3
     &END
   &END 
   &FIT_KIND N
     BASIS_SET TZV2P-MOLOPT-PBE-GTH-q5
     INITIAL_DEGREES_OF_FREEDOM COEFFICIENTS
     &DERIVED_BASIS_SETS
        BASIS_SET_NAME TZVP-MOLOPT-PBE-GTH-q5
        REFERENCE_SET 0
        REMOVE_CONTRACTION 1 3 1
        REMOVE_CONTRACTION 1 2 2
     &END
     &DERIVED_BASIS_SETS
        BASIS_SET_NAME DZVP-MOLOPT-PBE-GTH-q5
        REFERENCE_SET 0
        REMOVE_CONTRACTION 1 3 1
        REMOVE_CONTRACTION 1 2 2
        REMOVE_CONTRACTION 1 1 3
        REMOVE_CONTRACTION 1 0 3
     &END
   &END
   &FIT_KIND O
     BASIS_SET TZV2P-MOLOPT-PBE-GTH-q6
     INITIAL_DEGREES_OF_FREEDOM COEFFICIENTS
     &DERIVED_BASIS_SETS
        BASIS_SET_NAME TZVP-MOLOPT-PBE-GTH-q6
        REFERENCE_SET 0
        REMOVE_CONTRACTION 1 3 1
        REMOVE_CONTRACTION 1 2 2
     &END
     &DERIVED_BASIS_SETS
        BASIS_SET_NAME DZVP-MOLOPT-PBE-GTH-q6
        REFERENCE_SET 0
        REMOVE_CONTRACTION 1 3 1
        REMOVE_CONTRACTION 1 2 2
        REMOVE_CONTRACTION 1 1 3
        REMOVE_CONTRACTION 1 0 3
     &END
   &END
#   &FIT_KIND F
#     BASIS_SET TZV2P-MOLOPT-PBE-GTH-q7
#     INITIAL_DEGREES_OF_FREEDOM COEFFICIENTS
#     &DERIVED_BASIS_SETS
#        BASIS_SET_NAME TZVP-MOLOPT-PBE-GTH-q7
#        REFERENCE_SET 0
#        REMOVE_CONTRACTION 1 3 1
#        REMOVE_CONTRACTION 1 2 2
#     &END
#     &DERIVED_BASIS_SETS
#        BASIS_SET_NAME DZVP-MOLOPT-PBE-GTH-q7
#        REFERENCE_SET 0
#        REMOVE_CONTRACTION 1 3 1
#        REMOVE_CONTRACTION 1 2 2
#        REMOVE_CONTRACTION 1 1 3
#        REMOVE_CONTRACTION 1 0 3
#     &END
#   &END
&END
